@relation InstanceResultListener

@attribute Key_Dataset {data_agent,data_keyboard,raw_data_agent,raw_data_keyboard}
@attribute Key_Run {1,2,3,4,5,6,7,8,9,10}
@attribute Key_Fold {1,2,3,4,5,6,7,8,9,10}
@attribute Key_Scheme {weka.classifiers.functions.LinearRegression,weka.classifiers.trees.M5P}
@attribute Key_Scheme_options {'-S 0 -R 1.0E-8 -num-decimal-places 4','-M 4.0 -num-decimal-places 4'}
@attribute Key_Scheme_version_ID {-3364580862046573747,-6118439039768244417}
@attribute Date_time numeric
@attribute Number_of_training_instances numeric
@attribute Number_of_testing_instances numeric
@attribute Mean_absolute_error numeric
@attribute Root_mean_squared_error numeric
@attribute Relative_absolute_error numeric
@attribute Root_relative_squared_error numeric
@attribute Correlation_coefficient numeric
@attribute Number_unclassified numeric
@attribute Percent_unclassified numeric
@attribute SF_prior_entropy numeric
@attribute SF_scheme_entropy numeric
@attribute SF_entropy_gain numeric
@attribute SF_mean_prior_entropy numeric
@attribute SF_mean_scheme_entropy numeric
@attribute SF_mean_entropy_gain numeric
@attribute Elapsed_Time_training numeric
@attribute Elapsed_Time_testing numeric
@attribute UserCPU_Time_training numeric
@attribute UserCPU_Time_testing numeric
@attribute UserCPU_Time_millis_training numeric
@attribute UserCPU_Time_millis_testing numeric
@attribute Serialized_Model_Size numeric
@attribute Serialized_Train_Set_Size numeric
@attribute Serialized_Test_Set_Size numeric
@attribute Coverage_of_Test_Cases_By_Regions numeric
@attribute Size_of_Predicted_Regions numeric
@attribute Summary string
@attribute measureNumRules numeric

@data

data_agent,1,1,weka.classifiers.functions.LinearRegression,'-S 0 -R 1.0E-8 -num-decimal-places 4',-3364580862046573747,20260322.1817,10598,1178,0.622942,3.144704,84.343887,96.811656,0.250367,0,0,?,?,?,?,?,?,0.038,0.001,0.03125,0,31.25,0,7974,1920335,215315,?,?,?,?
data_agent,1,2,weka.classifiers.functions.LinearRegression,'-S 0 -R 1.0E-8 -num-decimal-places 4',-3364580862046573747,20260322.1817,10598,1178,0.649091,3.170889,86.855942,97.49468,0.224163,0,0,?,?,?,?,?,?,0.05,0.001,0.046875,0,46.875,0,7950,1920335,215315,?,?,?,?
data_agent,1,3,weka.classifiers.functions.LinearRegression,'-S 0 -R 1.0E-8 -num-decimal-places 4',-3364580862046573747,20260322.1817,10598,1178,0.620725,3.082898,89.032202,98.079552,0.203456,0,0,?,?,?,?,?,?,0.037,0.002,0.03125,0.015625,31.25,15.625,7966,1920335,215315,?,?,?,?
data_agent,1,4,weka.classifiers.functions.LinearRegression,'-S 0 -R 1.0E-8 -num-decimal-places 4',-3364580862046573747,20260322.1817,10598,1178,0.532216,1.165354,83.278222,84.968924,0.533718,0,0,?,?,?,?,?,?,0.041,0.001,0.046875,0,46.875,0,7958,1920335,215315,?,?,?,?
data_agent,1,5,weka.classifiers.functions.LinearRegression,'-S 0 -R 1.0E-8 -num-decimal-places 4',-3364580862046573747,20260322.1817,10598,1178,0.611577,3.133266,83.503986,97.483028,0.227801,0,0,?,?,?,?,?,?,0.05,0,0.03125,0,31.25,0,7934,1920335,215315,?,?,?,?
data_agent,1,6,weka.classifiers.functions.LinearRegression,'-S 0 -R 1.0E-8 -num-decimal-places 4',-3364580862046573747,20260322.1817,10598,1178,0.575332,3.060252,83.13095,97.232026,0.235354,0,0,?,?,?,?,?,?,0.04,0.001,0.03125,0,31.25,0,7950,1920335,215315,?,?,?,?
data_agent,1,7,weka.classifiers.functions.LinearRegression,'-S 0 -R 1.0E-8 -num-decimal-places 4',-3364580862046573747,20260322.1817,10599,1177,0.661145,4.25873,80.752809,97.648874,0.21977,0,0,?,?,?,?,?,?,0.036,0,0.03125,0,31.25,0,7966,1920516,215134,?,?,?,?
data_agent,1,8,weka.classifiers.functions.LinearRegression,'-S 0 -R 1.0E-8 -num-decimal-places 4',-3364580862046573747,20260322.1817,10599,1177,0.720929,5.087386,84.472984,98.411752,0.17895,0,0,?,?,?,?,?,?,0.041,0,0.03125,0,31.25,0,7958,1920516,215134,?,?,?,?
data_agent,1,9,weka.classifiers.functions.LinearRegression,'-S 0 -R 1.0E-8 -num-decimal-places 4',-3364580862046573747,20260322.1817,10599,1177,0.56414,1.400376,82.935597,86.621772,0.500083,0,0,?,?,?,?,?,?,0.042,0.001,0.046875,0,46.875,0,7966,1920516,215134,?,?,?,?
data_agent,1,10,weka.classifiers.functions.LinearRegression,'-S 0 -R 1.0E-8 -num-decimal-places 4',-3364580862046573747,20260322.1817,10599,1177,0.788239,5.179293,85.8104,98.719481,0.160018,0,0,?,?,?,?,?,?,0.042,0,0.046875,0,46.875,0,7942,1920516,215134,?,?,?,?
data_agent,2,1,weka.classifiers.functions.LinearRegression,'-S 0 -R 1.0E-8 -num-decimal-places 4',-3364580862046573747,20260322.1817,10598,1178,0.610571,3.098723,86.139941,97.460926,0.225822,0,0,?,?,?,?,?,?,0.048,0.001,0.046875,0,46.875,0,7950,1920335,215315,?,?,?,?
data_agent,2,2,weka.classifiers.functions.LinearRegression,'-S 0 -R 1.0E-8 -num-decimal-places 4',-3364580862046573747,20260322.1817,10598,1178,0.656394,4.223081,82.458781,97.857341,0.206618,0,0,?,?,?,?,?,?,0.039,0,0.03125,0,31.25,0,7966,1920335,215315,?,?,?,?
data_agent,2,3,weka.classifiers.functions.LinearRegression,'-S 0 -R 1.0E-8 -num-decimal-places 4',-3364580862046573747,20260322.1817,10598,1178,0.727109,4.295233,85.770118,98.05076,0.194226,0,0,?,?,?,?,?,?,0.042,0,0.046875,0,46.875,0,7966,1920335,215315,?,?,?,?
data_agent,2,4,weka.classifiers.functions.LinearRegression,'-S 0 -R 1.0E-8 -num-decimal-places 4',-3364580862046573747,20260322.1817,10598,1178,0.534356,1.082696,83.308546,84.231151,0.546678,0,0,?,?,?,?,?,?,0.04,0.002,0.03125,0,31.25,0,7966,1920335,215315,?,?,?,?
data_agent,2,5,weka.classifiers.functions.LinearRegression,'-S 0 -R 1.0E-8 -num-decimal-places 4',-3364580862046573747,20260322.1817,10598,1178,0.615213,3.188364,82.820469,97.263055,0.230426,0,0,?,?,?,?,?,?,0.034,0.002,0.015625,0,15.625,0,7974,1920335,215315,?,?,?,?
data_agent,2,6,weka.classifiers.functions.LinearRegression,'-S 0 -R 1.0E-8 -num-decimal-places 4',-3364580862046573747,20260322.1817,10598,1178,0.624143,3.158959,83.509844,97.261847,0.233613,0,0,?,?,?,?,?,?,0.045,0.001,0.046875,0,46.875,0,7950,1920335,215315,?,?,?,?
data_agent,2,7,weka.classifiers.functions.LinearRegression,'-S 0 -R 1.0E-8 -num-decimal-places 4',-3364580862046573747,20260322.1817,10599,1177,0.576915,3.101568,83.076042,97.255679,0.229535,0,0,?,?,?,?,?,?,0.045,0,0.046875,0,46.875,0,7942,1920516,215134,?,?,?,?
data_agent,2,8,weka.classifiers.functions.LinearRegression,'-S 0 -R 1.0E-8 -num-decimal-places 4',-3364580862046573747,20260322.1817,10599,1177,0.796032,5.183558,86.307516,98.715153,0.157626,0,0,?,?,?,?,?,?,0.054,0.001,0.046875,0,46.875,0,7950,1920516,215134,?,?,?,?
data_agent,2,9,weka.classifiers.functions.LinearRegression,'-S 0 -R 1.0E-8 -num-decimal-places 4',-3364580862046573747,20260322.1817,10599,1177,0.551344,1.264814,83.826486,85.137018,0.525882,0,0,?,?,?,?,?,?,0.048,0,0.03125,0,31.25,0,7958,1920516,215134,?,?,?,?
data_agent,2,10,weka.classifiers.functions.LinearRegression,'-S 0 -R 1.0E-8 -num-decimal-places 4',-3364580862046573747,20260322.1817,10599,1177,0.632426,4.183515,82.898105,98.041907,0.196633,0,0,?,?,?,?,?,?,0.093,0.001,0.09375,0,93.75,0,7958,1920516,215134,?,?,?,?
data_agent,3,1,weka.classifiers.functions.LinearRegression,'-S 0 -R 1.0E-8 -num-decimal-places 4',-3364580862046573747,20260322.1817,10598,1178,0.626542,3.136616,79.56829,95.864193,0.285929,0,0,?,?,?,?,?,?,0.053,0.001,0.046875,0,46.875,0,7966,1920335,215315,?,?,?,?
data_agent,3,2,weka.classifiers.functions.LinearRegression,'-S 0 -R 1.0E-8 -num-decimal-places 4',-3364580862046573747,20260322.1817,10598,1178,0.518028,1.044979,82.649277,80.137925,0.600665,0,0,?,?,?,?,?,?,0.052,0,0.046875,0,46.875,0,7958,1920335,215315,?,?,?,?
data_agent,3,3,weka.classifiers.functions.LinearRegression,'-S 0 -R 1.0E-8 -num-decimal-places 4',-3364580862046573747,20260322.1817,10598,1178,0.680591,4.256727,83.559904,98.101917,0.193023,0,0,?,?,?,?,?,?,0.059,0,0.0625,0,62.5,0,7926,1920335,215315,?,?,?,?
data_agent,3,4,weka.classifiers.functions.LinearRegression,'-S 0 -R 1.0E-8 -num-decimal-places 4',-3364580862046573747,20260322.1817,10598,1178,0.653996,3.234796,86.836712,98.299002,0.192744,0,0,?,?,?,?,?,?,0.049,0.001,0.046875,0,46.875,0,7950,1920335,215315,?,?,?,?
data_agent,3,5,weka.classifiers.functions.LinearRegression,'-S 0 -R 1.0E-8 -num-decimal-places 4',-3364580862046573747,20260322.1817,10598,1178,0.572662,1.350645,87.370084,87.501513,0.486903,0,0,?,?,?,?,?,?,0.044,0.001,0.03125,0.015625,31.25,15.625,7958,1920335,215315,?,?,?,?
data_agent,3,6,weka.classifiers.functions.LinearRegression,'-S 0 -R 1.0E-8 -num-decimal-places 4',-3364580862046573747,20260322.1817,10598,1178,0.59321,3.110465,79.905918,96.61434,0.257141,0,0,?,?,?,?,?,?,0.044,0.001,0.046875,0,46.875,0,7958,1920335,215315,?,?,?,?
data_agent,3,7,weka.classifiers.functions.LinearRegression,'-S 0 -R 1.0E-8 -num-decimal-places 4',-3364580862046573747,20260322.1817,10599,1177,0.609289,3.121508,85.901796,97.791476,0.214742,0,0,?,?,?,?,?,?,0.047,0,0.046875,0,46.875,0,7950,1920516,215134,?,?,?,?
data_agent,3,8,weka.classifiers.functions.LinearRegression,'-S 0 -R 1.0E-8 -num-decimal-places 4',-3364580862046573747,20260322.1817,10599,1177,0.759087,5.161322,84.529268,98.747223,0.158941,0,0,?,?,?,?,?,?,0.039,0.001,0.03125,0,31.25,0,7974,1920516,215134,?,?,?,?
data_agent,3,9,weka.classifiers.functions.LinearRegression,'-S 0 -R 1.0E-8 -num-decimal-places 4',-3364580862046573747,20260322.1817,10599,1177,0.645312,4.202853,85.462955,98.342962,0.181223,0,0,?,?,?,?,?,?,0.043,0,0.046875,0,46.875,0,7974,1920516,215134,?,?,?,?
data_agent,3,10,weka.classifiers.functions.LinearRegression,'-S 0 -R 1.0E-8 -num-decimal-places 4',-3364580862046573747,20260322.1817,10599,1177,0.669877,4.225445,86.2459,98.351044,0.178239,0,0,?,?,?,?,?,?,0.043,0,0.03125,0.015625,31.25,15.625,7974,1920516,215134,?,?,?,?
data_agent,4,1,weka.classifiers.functions.LinearRegression,'-S 0 -R 1.0E-8 -num-decimal-places 4',-3364580862046573747,20260322.1817,10598,1178,0.681726,3.231128,84.985874,96.818484,0.248427,0,0,?,?,?,?,?,?,0.047,0,0.03125,0,31.25,0,7966,1920335,215315,?,?,?,?
data_agent,4,2,weka.classifiers.functions.LinearRegression,'-S 0 -R 1.0E-8 -num-decimal-places 4',-3364580862046573747,20260322.1817,10598,1178,0.506019,1.013376,84.492128,82.301545,0.576029,0,0,?,?,?,?,?,?,0.04,0.001,0.03125,0.015625,31.25,15.625,7966,1920335,215315,?,?,?,?
data_agent,4,3,weka.classifiers.functions.LinearRegression,'-S 0 -R 1.0E-8 -num-decimal-places 4',-3364580862046573747,20260322.1817,10598,1178,0.828454,5.900614,86.281536,98.99202,0.142812,0,0,?,?,?,?,?,?,0.05,0,0.0625,0,62.5,0,7950,1920335,215315,?,?,?,?
data_agent,4,4,weka.classifiers.functions.LinearRegression,'-S 0 -R 1.0E-8 -num-decimal-places 4',-3364580862046573747,20260322.1817,10598,1178,0.73491,5.170092,82.254925,98.653981,0.162513,0,0,?,?,?,?,?,?,0.034,0.001,0.03125,0,31.25,0,7990,1920335,215315,?,?,?,?
data_agent,4,5,weka.classifiers.functions.LinearRegression,'-S 0 -R 1.0E-8 -num-decimal-places 4',-3364580862046573747,20260322.1817,10598,1178,0.615037,3.169073,85.17111,97.682053,0.21954,0,0,?,?,?,?,?,?,0.045,0.001,0.046875,0,46.875,0,7950,1920335,215315,?,?,?,?
data_agent,4,6,weka.classifiers.functions.LinearRegression,'-S 0 -R 1.0E-8 -num-decimal-places 4',-3364580862046573747,20260322.1817,10598,1178,0.613939,3.109729,82.328336,96.623547,0.257586,0,0,?,?,?,?,?,?,0.044,0,0.046875,0,46.875,0,7950,1920335,215315,?,?,?,?
data_agent,4,7,weka.classifiers.functions.LinearRegression,'-S 0 -R 1.0E-8 -num-decimal-places 4',-3364580862046573747,20260322.1817,10599,1177,0.710252,4.278125,84.214808,98.332708,0.181374,0,0,?,?,?,?,?,?,0.047,0.001,0.046875,0,46.875,0,7950,1920516,215134,?,?,?,?
data_agent,4,8,weka.classifiers.functions.LinearRegression,'-S 0 -R 1.0E-8 -num-decimal-places 4',-3364580862046573747,20260322.1817,10599,1177,0.548472,2.993358,83.669279,97.225851,0.232671,0,0,?,?,?,?,?,?,0.044,0.002,0.046875,0,46.875,0,7950,1920516,215134,?,?,?,?
data_agent,4,9,weka.classifiers.functions.LinearRegression,'-S 0 -R 1.0E-8 -num-decimal-places 4',-3364580862046573747,20260322.1817,10599,1177,0.527945,1.24447,84.058162,90.149716,0.452018,0,0,?,?,?,?,?,?,0.039,0,0.046875,0,46.875,0,7966,1920516,215134,?,?,?,?
data_agent,4,10,weka.classifiers.functions.LinearRegression,'-S 0 -R 1.0E-8 -num-decimal-places 4',-3364580862046573747,20260322.1817,10599,1177,0.571852,1.235787,85.284878,84.366313,0.537364,0,0,?,?,?,?,?,?,0.046,0,0.046875,0,46.875,0,7958,1920516,215134,?,?,?,?
data_agent,5,1,weka.classifiers.functions.LinearRegression,'-S 0 -R 1.0E-8 -num-decimal-places 4',-3364580862046573747,20260322.1817,10598,1178,0.676856,3.316296,87.046698,97.326069,0.230035,0,0,?,?,?,?,?,?,0.041,0,0.046875,0,46.875,0,7950,1920335,215315,?,?,?,?
data_agent,5,2,weka.classifiers.functions.LinearRegression,'-S 0 -R 1.0E-8 -num-decimal-places 4',-3364580862046573747,20260322.1817,10598,1178,0.60375,3.06438,81.728182,95.98044,0.281933,0,0,?,?,?,?,?,?,0.05,0.001,0.046875,0,46.875,0,7942,1920335,215315,?,?,?,?
data_agent,5,3,weka.classifiers.functions.LinearRegression,'-S 0 -R 1.0E-8 -num-decimal-places 4',-3364580862046573747,20260322.1817,10598,1178,0.769211,5.158671,87.310603,99.071011,0.138282,0,0,?,?,?,?,?,?,0.032,0,0.03125,0,31.25,0,7982,1920335,215315,?,?,?,?
data_agent,5,4,weka.classifiers.functions.LinearRegression,'-S 0 -R 1.0E-8 -num-decimal-places 4',-3364580862046573747,20260322.1817,10598,1178,0.704876,4.25698,84.720713,98.060762,0.194748,0,0,?,?,?,?,?,?,0.04,0.001,0.046875,0,46.875,0,7966,1920335,215315,?,?,?,?
data_agent,5,5,weka.classifiers.functions.LinearRegression,'-S 0 -R 1.0E-8 -num-decimal-places 4',-3364580862046573747,20260322.1817,10598,1178,0.689244,4.242906,86.511366,98.536001,0.171355,0,0,?,?,?,?,?,?,0.044,0.001,0.03125,0,31.25,0,7942,1920335,215315,?,?,?,?
data_agent,5,6,weka.classifiers.functions.LinearRegression,'-S 0 -R 1.0E-8 -num-decimal-places 4',-3364580862046573747,20260322.1817,10598,1178,0.614006,3.185417,78.597572,96.197382,0.275005,0,0,?,?,?,?,?,?,0.034,0,0.03125,0,31.25,0,7974,1920335,215315,?,?,?,?
data_agent,5,7,weka.classifiers.functions.LinearRegression,'-S 0 -R 1.0E-8 -num-decimal-places 4',-3364580862046573747,20260322.1817,10599,1177,0.637904,4.190109,82.286406,98.19075,0.189334,0,0,?,?,?,?,?,?,0.045,0.001,0.046875,0,46.875,0,7942,1920516,215134,?,?,?,?
data_agent,5,8,weka.classifiers.functions.LinearRegression,'-S 0 -R 1.0E-8 -num-decimal-places 4',-3364580862046573747,20260322.1817,10599,1177,0.506498,1.013032,83.136128,83.531343,0.565853,0,0,?,?,?,?,?,?,0.04,0.001,0.046875,0,46.875,0,7958,1920516,215134,?,?,?,?
data_agent,5,9,weka.classifiers.functions.LinearRegression,'-S 0 -R 1.0E-8 -num-decimal-places 4',-3364580862046573747,20260322.1817,10599,1177,0.54931,1.204635,89.260585,89.76014,0.462925,0,0,?,?,?,?,?,?,0.039,0,0.03125,0,31.25,0,7966,1920516,215134,?,?,?,?
data_agent,5,10,weka.classifiers.functions.LinearRegression,'-S 0 -R 1.0E-8 -num-decimal-places 4',-3364580862046573747,20260322.1817,10599,1177,0.598878,3.102475,84.207009,97.020022,0.24291,0,0,?,?,?,?,?,?,0.036,0.001,0.046875,0,46.875,0,7974,1920516,215134,?,?,?,?
data_agent,6,1,weka.classifiers.functions.LinearRegression,'-S 0 -R 1.0E-8 -num-decimal-places 4',-3364580862046573747,20260322.1817,10598,1178,0.669934,4.270012,85.548046,98.369745,0.179186,0,0,?,?,?,?,?,?,0.036,0.001,0.03125,0,31.25,0,7974,1920335,215315,?,?,?,?
data_agent,6,2,weka.classifiers.functions.LinearRegression,'-S 0 -R 1.0E-8 -num-decimal-places 4',-3364580862046573747,20260322.1817,10598,1178,0.591751,3.064803,83.770322,97.464961,0.226402,0,0,?,?,?,?,?,?,0.043,0,0.03125,0,31.25,0,7958,1920335,215315,?,?,?,?
data_agent,6,3,weka.classifiers.functions.LinearRegression,'-S 0 -R 1.0E-8 -num-decimal-places 4',-3364580862046573747,20260322.1817,10598,1178,0.58669,3.03623,83.705247,96.146426,0.275212,0,0,?,?,?,?,?,?,0.055,0,0.0625,0,62.5,0,7966,1920335,215315,?,?,?,?
data_agent,6,4,weka.classifiers.functions.LinearRegression,'-S 0 -R 1.0E-8 -num-decimal-places 4',-3364580862046573747,20260322.1817,10598,1178,0.506675,0.988176,83.515959,79.955965,0.602568,0,0,?,?,?,?,?,?,0.043,0,0.03125,0,31.25,0,7974,1920335,215315,?,?,?,?
data_agent,6,5,weka.classifiers.functions.LinearRegression,'-S 0 -R 1.0E-8 -num-decimal-places 4',-3364580862046573747,20260322.1817,10598,1178,0.570093,1.394733,81.444322,88.83341,0.462726,0,0,?,?,?,?,?,?,0.045,0.001,0.046875,0,46.875,0,7966,1920335,215315,?,?,?,?
data_agent,6,6,weka.classifiers.functions.LinearRegression,'-S 0 -R 1.0E-8 -num-decimal-places 4',-3364580862046573747,20260322.1817,10598,1178,0.685319,4.221214,86.457371,97.923004,0.202967,0,0,?,?,?,?,?,?,0.051,0.001,0.046875,0,46.875,0,7950,1920335,215315,?,?,?,?
data_agent,6,7,weka.classifiers.functions.LinearRegression,'-S 0 -R 1.0E-8 -num-decimal-places 4',-3364580862046573747,20260322.1817,10599,1177,0.757807,5.15508,85.628147,98.870075,0.150475,0,0,?,?,?,?,?,?,0.05,0,0.046875,0,46.875,0,7958,1920516,215134,?,?,?,?
data_agent,6,8,weka.classifiers.functions.LinearRegression,'-S 0 -R 1.0E-8 -num-decimal-places 4',-3364580862046573747,20260322.1817,10599,1177,0.647614,3.191981,85.780659,97.603534,0.221898,0,0,?,?,?,?,?,?,0.048,0.001,0.03125,0,31.25,0,7934,1920516,215134,?,?,?,?
data_agent,6,9,weka.classifiers.functions.LinearRegression,'-S 0 -R 1.0E-8 -num-decimal-places 4',-3364580862046573747,20260322.1817,10599,1177,0.701192,4.300141,83.549769,97.65333,0.219044,0,0,?,?,?,?,?,?,0.045,0.002,0.046875,0,46.875,0,7942,1920516,215134,?,?,?,?
data_agent,6,10,weka.classifiers.functions.LinearRegression,'-S 0 -R 1.0E-8 -num-decimal-places 4',-3364580862046573747,20260322.1817,10599,1177,0.621172,3.133883,82.81351,96.900173,0.248426,0,0,?,?,?,?,?,?,0.048,0,0.046875,0,46.875,0,7934,1920516,215134,?,?,?,?
data_agent,7,1,weka.classifiers.functions.LinearRegression,'-S 0 -R 1.0E-8 -num-decimal-places 4',-3364580862046573747,20260322.1817,10598,1178,0.595582,3.099731,84.798809,96.68572,0.255354,0,0,?,?,?,?,?,?,0.063,0,0.046875,0,46.875,0,7966,1920335,215315,?,?,?,?
data_agent,7,2,weka.classifiers.functions.LinearRegression,'-S 0 -R 1.0E-8 -num-decimal-places 4',-3364580862046573747,20260322.1817,10598,1178,0.645455,3.184127,84.01072,96.743638,0.253058,0,0,?,?,?,?,?,?,0.053,0.001,0.046875,0,46.875,0,7974,1920335,215315,?,?,?,?
data_agent,7,3,weka.classifiers.functions.LinearRegression,'-S 0 -R 1.0E-8 -num-decimal-places 4',-3364580862046573747,20260322.1817,10598,1178,0.73586,4.375051,84.967039,98.132853,0.192696,0,0,?,?,?,?,?,?,0.052,0.001,0.0625,0,62.5,0,7950,1920335,215315,?,?,?,?
data_agent,7,4,weka.classifiers.functions.LinearRegression,'-S 0 -R 1.0E-8 -num-decimal-places 4',-3364580862046573747,20260322.1817,10598,1178,0.591918,3.125391,80.497843,96.285596,0.270591,0,0,?,?,?,?,?,?,0.048,0,0.046875,0,46.875,0,7958,1920335,215315,?,?,?,?
data_agent,7,5,weka.classifiers.functions.LinearRegression,'-S 0 -R 1.0E-8 -num-decimal-places 4',-3364580862046573747,20260322.1817,10598,1178,0.642032,3.143606,85.648296,97.308152,0.232376,0,0,?,?,?,?,?,?,0.052,0,0.0625,0,62.5,0,7966,1920335,215315,?,?,?,?
data_agent,7,6,weka.classifiers.functions.LinearRegression,'-S 0 -R 1.0E-8 -num-decimal-places 4',-3364580862046573747,20260322.1817,10598,1178,0.621545,3.122841,82.283241,96.580603,0.259767,0,0,?,?,?,?,?,?,0.052,0,0.046875,0,46.875,0,7950,1920335,215315,?,?,?,?
data_agent,7,7,weka.classifiers.functions.LinearRegression,'-S 0 -R 1.0E-8 -num-decimal-places 4',-3364580862046573747,20260322.1817,10599,1177,0.763003,5.143519,85.285276,98.500507,0.173028,0,0,?,?,?,?,?,?,0.059,0.001,0.046875,0,46.875,0,7950,1920516,215134,?,?,?,?
data_agent,7,8,weka.classifiers.functions.LinearRegression,'-S 0 -R 1.0E-8 -num-decimal-places 4',-3364580862046573747,20260322.1817,10599,1177,0.567507,3.020587,85.682325,97.336412,0.230761,0,0,?,?,?,?,?,?,0.058,0.001,0.03125,0,31.25,0,7942,1920516,215134,?,?,?,?
data_agent,7,9,weka.classifiers.functions.LinearRegression,'-S 0 -R 1.0E-8 -num-decimal-places 4',-3364580862046573747,20260322.1817,10599,1177,0.511769,1.050113,81.847242,83.370267,0.563563,0,0,?,?,?,?,?,?,0.048,0.001,0.0625,0,62.5,0,7966,1920516,215134,?,?,?,?
data_agent,7,10,weka.classifiers.functions.LinearRegression,'-S 0 -R 1.0E-8 -num-decimal-places 4',-3364580862046573747,20260322.1817,10599,1177,0.657272,4.203223,86.629177,98.785582,0.159543,0,0,?,?,?,?,?,?,0.048,0.002,0.046875,0,46.875,0,7974,1920516,215134,?,?,?,?
data_agent,8,1,weka.classifiers.functions.LinearRegression,'-S 0 -R 1.0E-8 -num-decimal-places 4',-3364580862046573747,20260322.1817,10598,1178,0.603588,3.123217,86.832425,98.095238,0.202824,0,0,?,?,?,?,?,?,0.049,0,0.046875,0,46.875,0,7958,1920335,215315,?,?,?,?
data_agent,8,2,weka.classifiers.functions.LinearRegression,'-S 0 -R 1.0E-8 -num-decimal-places 4',-3364580862046573747,20260322.1817,10598,1178,0.589918,3.099981,82.57773,97.352786,0.231369,0,0,?,?,?,?,?,?,0.049,0,0.046875,0,46.875,0,7958,1920335,215315,?,?,?,?
data_agent,8,3,weka.classifiers.functions.LinearRegression,'-S 0 -R 1.0E-8 -num-decimal-places 4',-3364580862046573747,20260322.1817,10598,1178,0.889852,5.977249,86.068129,98.979385,0.142468,0,0,?,?,?,?,?,?,0.052,0.002,0.046875,0,46.875,0,7950,1920335,215315,?,?,?,?
data_agent,8,4,weka.classifiers.functions.LinearRegression,'-S 0 -R 1.0E-8 -num-decimal-places 4',-3364580862046573747,20260322.1817,10598,1178,0.592904,3.085401,86.972584,97.63694,0.212756,0,0,?,?,?,?,?,?,0.047,0.002,0.03125,0,31.25,0,7942,1920335,215315,?,?,?,?
data_agent,8,5,weka.classifiers.functions.LinearRegression,'-S 0 -R 1.0E-8 -num-decimal-places 4',-3364580862046573747,20260322.1817,10598,1178,0.667698,4.201799,84.6298,98.100068,0.193988,0,0,?,?,?,?,?,?,0.045,0,0.046875,0,46.875,0,7950,1920335,215315,?,?,?,?
data_agent,8,6,weka.classifiers.functions.LinearRegression,'-S 0 -R 1.0E-8 -num-decimal-places 4',-3364580862046573747,20260322.1817,10598,1178,0.647196,4.193309,82.167048,97.794361,0.209713,0,0,?,?,?,?,?,?,0.052,0,0.015625,0,15.625,0,7934,1920335,215315,?,?,?,?
data_agent,8,7,weka.classifiers.functions.LinearRegression,'-S 0 -R 1.0E-8 -num-decimal-places 4',-3364580862046573747,20260322.1817,10599,1177,0.517365,0.931952,79.507842,75.268518,0.659924,0,0,?,?,?,?,?,?,0.038,0,0.03125,0,31.25,0,7974,1920516,215134,?,?,?,?
data_agent,8,8,weka.classifiers.functions.LinearRegression,'-S 0 -R 1.0E-8 -num-decimal-places 4',-3364580862046573747,20260322.1817,10599,1177,0.693659,4.286678,89.34913,98.420784,0.176939,0,0,?,?,?,?,?,?,0.041,0,0.046875,0,46.875,0,7966,1920516,215134,?,?,?,?
data_agent,8,9,weka.classifiers.functions.LinearRegression,'-S 0 -R 1.0E-8 -num-decimal-places 4',-3364580862046573747,20260322.1817,10599,1177,0.580496,1.396524,83.150066,88.246761,0.474957,0,0,?,?,?,?,?,?,0.044,0,0.03125,0,31.25,0,7958,1920516,215134,?,?,?,?
data_agent,8,10,weka.classifiers.functions.LinearRegression,'-S 0 -R 1.0E-8 -num-decimal-places 4',-3364580862046573747,20260322.1817,10599,1177,0.556533,1.330112,80.390168,83.639596,0.548332,0,0,?,?,?,?,?,?,0.039,0.001,0.03125,0,31.25,0,7966,1920516,215134,?,?,?,?
data_agent,9,1,weka.classifiers.functions.LinearRegression,'-S 0 -R 1.0E-8 -num-decimal-places 4',-3364580862046573747,20260322.1817,10598,1178,0.864468,5.968221,87.932541,99.232031,0.123982,0,0,?,?,?,?,?,?,0.038,0.001,0.046875,0,46.875,0,7990,1920335,215315,?,?,?,?
data_agent,9,2,weka.classifiers.functions.LinearRegression,'-S 0 -R 1.0E-8 -num-decimal-places 4',-3364580862046573747,20260322.1817,10598,1178,0.51244,1.088693,81.325911,84.395641,0.54566,0,0,?,?,?,?,?,?,0.068,0.001,0.0625,0,62.5,0,7966,1920335,215315,?,?,?,?
data_agent,9,3,weka.classifiers.functions.LinearRegression,'-S 0 -R 1.0E-8 -num-decimal-places 4',-3364580862046573747,20260322.1817,10598,1178,0.668944,4.23624,85.333491,98.427705,0.177801,0,0,?,?,?,?,?,?,0.048,0.001,0.046875,0,46.875,0,7966,1920335,215315,?,?,?,?
data_agent,9,4,weka.classifiers.functions.LinearRegression,'-S 0 -R 1.0E-8 -num-decimal-places 4',-3364580862046573747,20260322.1817,10598,1178,0.525977,1.009557,81.6784,80.23919,0.603585,0,0,?,?,?,?,?,?,0.042,0,0.03125,0.015625,31.25,15.625,7966,1920335,215315,?,?,?,?
data_agent,9,5,weka.classifiers.functions.LinearRegression,'-S 0 -R 1.0E-8 -num-decimal-places 4',-3364580862046573747,20260322.1817,10598,1178,0.695494,4.286973,84.717182,98.20166,0.188867,0,0,?,?,?,?,?,?,0.054,0.001,0.0625,0,62.5,0,7966,1920335,215315,?,?,?,?
data_agent,9,6,weka.classifiers.functions.LinearRegression,'-S 0 -R 1.0E-8 -num-decimal-places 4',-3364580862046573747,20260322.1817,10598,1178,0.533844,1.122407,81.462398,82.381807,0.568147,0,0,?,?,?,?,?,?,0.047,0.001,0.03125,0,31.25,0,7958,1920335,215315,?,?,?,?
data_agent,9,7,weka.classifiers.functions.LinearRegression,'-S 0 -R 1.0E-8 -num-decimal-places 4',-3364580862046573747,20260322.1817,10599,1177,0.688079,4.25202,87.318398,98.545191,0.172297,0,0,?,?,?,?,?,?,0.047,0.002,0.046875,0,46.875,0,7950,1920516,215134,?,?,?,?
data_agent,9,8,weka.classifiers.functions.LinearRegression,'-S 0 -R 1.0E-8 -num-decimal-places 4',-3364580862046573747,20260322.1817,10599,1177,0.531675,1.173178,82.56907,85.107038,0.527191,0,0,?,?,?,?,?,?,0.041,0,0.03125,0,31.25,0,7966,1920516,215134,?,?,?,?
data_agent,9,9,weka.classifiers.functions.LinearRegression,'-S 0 -R 1.0E-8 -num-decimal-places 4',-3364580862046573747,20260322.1817,10599,1177,0.713358,4.314032,85.260727,97.824124,0.209704,0,0,?,?,?,?,?,?,0.044,0,0.046875,0,46.875,0,7942,1920516,215134,?,?,?,?
data_agent,9,10,weka.classifiers.functions.LinearRegression,'-S 0 -R 1.0E-8 -num-decimal-places 4',-3364580862046573747,20260322.1817,10599,1177,0.599318,3.069103,82.052224,96.232335,0.27306,0,0,?,?,?,?,?,?,0.044,0,0.03125,0,31.25,0,7950,1920516,215134,?,?,?,?
data_agent,10,1,weka.classifiers.functions.LinearRegression,'-S 0 -R 1.0E-8 -num-decimal-places 4',-3364580862046573747,20260322.1817,10598,1178,0.692189,4.269183,86.594374,98.276525,0.185497,0,0,?,?,?,?,?,?,0.031,0.001,0.03125,0,31.25,0,7974,1920335,215315,?,?,?,?
data_agent,10,2,weka.classifiers.functions.LinearRegression,'-S 0 -R 1.0E-8 -num-decimal-places 4',-3364580862046573747,20260322.1817,10598,1178,0.791365,5.147683,84.61989,98.393396,0.178622,0,0,?,?,?,?,?,?,0.038,0.001,0.03125,0,31.25,0,7966,1920335,215315,?,?,?,?
data_agent,10,3,weka.classifiers.functions.LinearRegression,'-S 0 -R 1.0E-8 -num-decimal-places 4',-3364580862046573747,20260322.1817,10598,1178,0.617573,3.152548,83.475397,97.729034,0.2161,0,0,?,?,?,?,?,?,0.041,0,0.046875,0,46.875,0,7950,1920335,215315,?,?,?,?
data_agent,10,4,weka.classifiers.functions.LinearRegression,'-S 0 -R 1.0E-8 -num-decimal-places 4',-3364580862046573747,20260322.1817,10598,1178,0.733107,4.290989,83.664963,97.569148,0.220383,0,0,?,?,?,?,?,?,0.05,0,0.0625,0,62.5,0,7934,1920335,215315,?,?,?,?
data_agent,10,5,weka.classifiers.functions.LinearRegression,'-S 0 -R 1.0E-8 -num-decimal-places 4',-3364580862046573747,20260322.1817,10598,1178,0.677649,4.265521,84.693173,98.171831,0.190109,0,0,?,?,?,?,?,?,0.037,0,0.046875,0,46.875,0,7950,1920335,215315,?,?,?,?
data_agent,10,6,weka.classifiers.functions.LinearRegression,'-S 0 -R 1.0E-8 -num-decimal-places 4',-3364580862046573747,20260322.1817,10598,1178,0.52756,1.10856,84.121489,88.976888,0.499852,0,0,?,?,?,?,?,?,0.036,0.001,0.046875,0,46.875,0,7966,1920335,215315,?,?,?,?
data_agent,10,7,weka.classifiers.functions.LinearRegression,'-S 0 -R 1.0E-8 -num-decimal-places 4',-3364580862046573747,20260322.1817,10599,1177,0.734844,5.115358,85.038625,98.59105,0.168158,0,0,?,?,?,?,?,?,0.043,0.001,0.046875,0,46.875,0,7950,1920516,215134,?,?,?,?
data_agent,10,8,weka.classifiers.functions.LinearRegression,'-S 0 -R 1.0E-8 -num-decimal-places 4',-3364580862046573747,20260322.1817,10599,1177,0.467703,0.925322,81.609611,81.958002,0.579152,0,0,?,?,?,?,?,?,0.041,0.001,0.046875,0,46.875,0,7974,1920516,215134,?,?,?,?
data_agent,10,9,weka.classifiers.functions.LinearRegression,'-S 0 -R 1.0E-8 -num-decimal-places 4',-3364580862046573747,20260322.1817,10599,1177,0.526712,1.213615,83.340376,82.7475,0.562471,0,0,?,?,?,?,?,?,0.036,0.001,0.03125,0,31.25,0,7966,1920516,215134,?,?,?,?
data_agent,10,10,weka.classifiers.functions.LinearRegression,'-S 0 -R 1.0E-8 -num-decimal-places 4',-3364580862046573747,20260322.1817,10599,1177,0.569651,1.317881,84.856942,88.684804,0.469754,0,0,?,?,?,?,?,?,0.039,0,0.03125,0,31.25,0,7950,1920516,215134,?,?,?,?
data_keyboard,1,1,weka.classifiers.functions.LinearRegression,'-S 0 -R 1.0E-8 -num-decimal-places 4',-3364580862046573747,20260322.1817,12566,1397,1.267022,4.965765,76.766668,95.151506,0.310143,0,0,?,?,?,?,?,?,0.055,0,0.046875,0,46.875,0,7975,2276546,254957,?,?,?,?
data_keyboard,1,2,weka.classifiers.functions.LinearRegression,'-S 0 -R 1.0E-8 -num-decimal-places 4',-3364580862046573747,20260322.1817,12566,1397,1.223968,3.373866,80.513726,94.713873,0.340185,0,0,?,?,?,?,?,?,0.061,0.001,0.03125,0,31.25,0,7967,2276546,254957,?,?,?,?
data_keyboard,1,3,weka.classifiers.functions.LinearRegression,'-S 0 -R 1.0E-8 -num-decimal-places 4',-3364580862046573747,20260322.1817,12566,1397,1.475426,6.822324,81.491121,98.451973,0.179544,0,0,?,?,?,?,?,?,0.049,0.001,0.046875,0,46.875,0,7975,2276546,254957,?,?,?,?
data_keyboard,1,4,weka.classifiers.functions.LinearRegression,'-S 0 -R 1.0E-8 -num-decimal-places 4',-3364580862046573747,20260322.1817,12567,1396,1.165398,2.262608,77.572289,88.911142,0.479189,0,0,?,?,?,?,?,?,0.052,0,0.046875,0,46.875,0,7959,2276727,254776,?,?,?,?
data_keyboard,1,5,weka.classifiers.functions.LinearRegression,'-S 0 -R 1.0E-8 -num-decimal-places 4',-3364580862046573747,20260322.1817,12567,1396,1.450228,5.760657,81.121488,97.1921,0.235852,0,0,?,?,?,?,?,?,0.058,0.001,0.0625,0,62.5,0,7967,2276727,254776,?,?,?,?
data_keyboard,1,6,weka.classifiers.functions.LinearRegression,'-S 0 -R 1.0E-8 -num-decimal-places 4',-3364580862046573747,20260322.1817,12567,1396,1.144588,4.139777,75.158091,94.546559,0.324332,0,0,?,?,?,?,?,?,0.049,0.001,0.046875,0,46.875,0,7959,2276727,254776,?,?,?,?
data_keyboard,1,7,weka.classifiers.functions.LinearRegression,'-S 0 -R 1.0E-8 -num-decimal-places 4',-3364580862046573747,20260322.1817,12567,1396,1.294536,4.304191,77.999521,95.546351,0.297602,0,0,?,?,?,?,?,?,0.052,0.001,0.0625,0,62.5,0,7959,2276727,254776,?,?,?,?
data_keyboard,1,8,weka.classifiers.functions.LinearRegression,'-S 0 -R 1.0E-8 -num-decimal-places 4',-3364580862046573747,20260322.1817,12567,1396,1.316373,5.074458,79.675562,96.792875,0.255295,0,0,?,?,?,?,?,?,0.061,0.001,0.0625,0,62.5,0,7967,2276727,254776,?,?,?,?
data_keyboard,1,9,weka.classifiers.functions.LinearRegression,'-S 0 -R 1.0E-8 -num-decimal-places 4',-3364580862046573747,20260322.1817,12567,1396,1.300459,5.063444,79.569901,97.127118,0.240404,0,0,?,?,?,?,?,?,0.048,0.001,0.046875,0.015625,46.875,15.625,7967,2276727,254776,?,?,?,?
data_keyboard,1,10,weka.classifiers.functions.LinearRegression,'-S 0 -R 1.0E-8 -num-decimal-places 4',-3364580862046573747,20260322.1817,12567,1396,1.388074,5.999258,78.708166,93.416574,0.397144,0,0,?,?,?,?,?,?,0.056,0.002,0.046875,0,46.875,0,7943,2276727,254776,?,?,?,?
data_keyboard,2,1,weka.classifiers.functions.LinearRegression,'-S 0 -R 1.0E-8 -num-decimal-places 4',-3364580862046573747,20260322.1817,12566,1397,1.217587,4.347251,78.683484,97.181922,0.24829,0,0,?,?,?,?,?,?,0.052,0.001,0.046875,0,46.875,0,7959,2276546,254957,?,?,?,?
data_keyboard,2,2,weka.classifiers.functions.LinearRegression,'-S 0 -R 1.0E-8 -num-decimal-places 4',-3364580862046573747,20260322.1817,12566,1397,1.124895,2.060115,76.880535,84.885119,0.540405,0,0,?,?,?,?,?,?,0.05,0.001,0.046875,0,46.875,0,7967,2276546,254957,?,?,?,?
data_keyboard,2,3,weka.classifiers.functions.LinearRegression,'-S 0 -R 1.0E-8 -num-decimal-places 4',-3364580862046573747,20260322.1817,12566,1397,1.4114,6.261775,80.068716,97.831692,0.208773,0,0,?,?,?,?,?,?,0.055,0.001,0.046875,0,46.875,0,7959,2276546,254957,?,?,?,?
data_keyboard,2,4,weka.classifiers.functions.LinearRegression,'-S 0 -R 1.0E-8 -num-decimal-places 4',-3364580862046573747,20260322.1817,12567,1396,1.215179,3.387875,79.676559,93.897043,0.355539,0,0,?,?,?,?,?,?,0.056,0.001,0.0625,0,62.5,0,7975,2276727,254776,?,?,?,?
data_keyboard,2,5,weka.classifiers.functions.LinearRegression,'-S 0 -R 1.0E-8 -num-decimal-places 4',-3364580862046573747,20260322.1817,12567,1396,1.32208,5.650993,78.207449,96.855937,0.249557,0,0,?,?,?,?,?,?,0.066,0.001,0.0625,0,62.5,0,7967,2276727,254776,?,?,?,?
data_keyboard,2,6,weka.classifiers.functions.LinearRegression,'-S 0 -R 1.0E-8 -num-decimal-places 4',-3364580862046573747,20260322.1817,12567,1396,1.221954,3.472122,77.761688,94.390423,0.340163,0,0,?,?,?,?,?,?,0.065,0.001,0.0625,0,62.5,0,7951,2276727,254776,?,?,?,?
data_keyboard,2,7,weka.classifiers.functions.LinearRegression,'-S 0 -R 1.0E-8 -num-decimal-places 4',-3364580862046573747,20260322.1817,12567,1396,1.286639,4.203914,78.426362,92.674806,0.376452,0,0,?,?,?,?,?,?,0.056,0.001,0.046875,0,46.875,0,7959,2276727,254776,?,?,?,?
data_keyboard,2,8,weka.classifiers.functions.LinearRegression,'-S 0 -R 1.0E-8 -num-decimal-places 4',-3364580862046573747,20260322.1817,12567,1396,1.388919,5.692567,78.19302,96.821022,0.250359,0,0,?,?,?,?,?,?,0.063,0,0.046875,0,46.875,0,7959,2276727,254776,?,?,?,?
data_keyboard,2,9,weka.classifiers.functions.LinearRegression,'-S 0 -R 1.0E-8 -num-decimal-places 4',-3364580862046573747,20260322.1817,12567,1396,1.392997,5.711994,77.68603,96.468909,0.26349,0,0,?,?,?,?,?,?,0.051,0,0.046875,0,46.875,0,7975,2276727,254776,?,?,?,?
data_keyboard,2,10,weka.classifiers.functions.LinearRegression,'-S 0 -R 1.0E-8 -num-decimal-places 4',-3364580862046573747,20260322.1817,12567,1396,1.424574,6.551574,82.230886,95.318241,0.322831,0,0,?,?,?,?,?,?,0.058,0,0.046875,0,46.875,0,7951,2276727,254776,?,?,?,?
data_keyboard,3,1,weka.classifiers.functions.LinearRegression,'-S 0 -R 1.0E-8 -num-decimal-places 4',-3364580862046573747,20260322.1817,12566,1397,1.296311,5.053526,80.848332,97.260801,0.235087,0,0,?,?,?,?,?,?,0.056,0,0.03125,0,31.25,0,7959,2276546,254957,?,?,?,?
data_keyboard,3,2,weka.classifiers.functions.LinearRegression,'-S 0 -R 1.0E-8 -num-decimal-places 4',-3364580862046573747,20260322.1817,12566,1397,1.362122,5.089584,80.487295,96.471935,0.264332,0,0,?,?,?,?,?,?,0.051,0.001,0.046875,0,46.875,0,7959,2276546,254957,?,?,?,?
data_keyboard,3,3,weka.classifiers.functions.LinearRegression,'-S 0 -R 1.0E-8 -num-decimal-places 4',-3364580862046573747,20260322.1817,12566,1397,1.296832,4.272913,76.287254,92.204852,0.389755,0,0,?,?,?,?,?,?,0.052,0.002,0.046875,0,46.875,0,7959,2276546,254957,?,?,?,?
data_keyboard,3,4,weka.classifiers.functions.LinearRegression,'-S 0 -R 1.0E-8 -num-decimal-places 4',-3364580862046573747,20260322.1817,12567,1396,1.357078,5.716634,79.694187,97.845265,0.211022,0,0,?,?,?,?,?,?,0.057,0,0.046875,0,46.875,0,7959,2276727,254776,?,?,?,?
data_keyboard,3,5,weka.classifiers.functions.LinearRegression,'-S 0 -R 1.0E-8 -num-decimal-places 4',-3364580862046573747,20260322.1817,12567,1396,1.228078,3.371915,77.705539,92.323754,0.386485,0,0,?,?,?,?,?,?,0.055,0.001,0.0625,0,62.5,0,7967,2276727,254776,?,?,?,?
data_keyboard,3,6,weka.classifiers.functions.LinearRegression,'-S 0 -R 1.0E-8 -num-decimal-places 4',-3364580862046573747,20260322.1817,12567,1396,1.563167,7.117811,81.808904,95.645569,0.304976,0,0,?,?,?,?,?,?,0.054,0,0.046875,0,46.875,0,7943,2276727,254776,?,?,?,?
data_keyboard,3,7,weka.classifiers.functions.LinearRegression,'-S 0 -R 1.0E-8 -num-decimal-places 4',-3364580862046573747,20260322.1817,12567,1396,1.180955,3.415375,75.482435,93.330368,0.362691,0,0,?,?,?,?,?,?,0.051,0.001,0.046875,0,46.875,0,7975,2276727,254776,?,?,?,?
data_keyboard,3,8,weka.classifiers.functions.LinearRegression,'-S 0 -R 1.0E-8 -num-decimal-places 4',-3364580862046573747,20260322.1817,12567,1396,1.102571,3.220758,76.783845,93.744025,0.354055,0,0,?,?,?,?,?,?,0.052,0.002,0.046875,0.015625,46.875,15.625,7951,2276727,254776,?,?,?,?
data_keyboard,3,9,weka.classifiers.functions.LinearRegression,'-S 0 -R 1.0E-8 -num-decimal-places 4',-3364580862046573747,20260322.1817,12567,1396,1.196796,4.209069,77.302203,95.924836,0.286339,0,0,?,?,?,?,?,?,0.053,0.001,0.0625,0,62.5,0,7975,2276727,254776,?,?,?,?
data_keyboard,3,10,weka.classifiers.functions.LinearRegression,'-S 0 -R 1.0E-8 -num-decimal-places 4',-3364580862046573747,20260322.1817,12567,1396,1.417187,6.265216,80.347985,97.489286,0.223015,0,0,?,?,?,?,?,?,0.053,0.001,0.046875,0,46.875,0,7967,2276727,254776,?,?,?,?
data_keyboard,4,1,weka.classifiers.functions.LinearRegression,'-S 0 -R 1.0E-8 -num-decimal-places 4',-3364580862046573747,20260322.1817,12566,1397,1.298882,4.335313,78.625973,94.96619,0.314533,0,0,?,?,?,?,?,?,0.059,0.001,0.03125,0,31.25,0,7967,2276546,254957,?,?,?,?
data_keyboard,4,2,weka.classifiers.functions.LinearRegression,'-S 0 -R 1.0E-8 -num-decimal-places 4',-3364580862046573747,20260322.1817,12566,1397,1.236402,4.31014,78.199994,96.374793,0.271921,0,0,?,?,?,?,?,?,0.061,0,0.046875,0,46.875,0,7951,2276546,254957,?,?,?,?
data_keyboard,4,3,weka.classifiers.functions.LinearRegression,'-S 0 -R 1.0E-8 -num-decimal-places 4',-3364580862046573747,20260322.1817,12566,1397,1.343822,5.670709,80.540324,97.746598,0.213567,0,0,?,?,?,?,?,?,0.053,0.001,0.046875,0,46.875,0,7975,2276546,254957,?,?,?,?
data_keyboard,4,4,weka.classifiers.functions.LinearRegression,'-S 0 -R 1.0E-8 -num-decimal-places 4',-3364580862046573747,20260322.1817,12567,1396,1.061022,1.934759,76.029559,84.63872,0.543839,0,0,?,?,?,?,?,?,0.057,0.001,0.0625,0,62.5,0,7951,2276727,254776,?,?,?,?
data_keyboard,4,5,weka.classifiers.functions.LinearRegression,'-S 0 -R 1.0E-8 -num-decimal-places 4',-3364580862046573747,20260322.1817,12567,1396,1.199641,3.411309,77.054766,93.512472,0.361513,0,0,?,?,?,?,?,?,0.061,0.001,0.046875,0,46.875,0,7951,2276727,254776,?,?,?,?
data_keyboard,4,6,weka.classifiers.functions.LinearRegression,'-S 0 -R 1.0E-8 -num-decimal-places 4',-3364580862046573747,20260322.1817,12567,1396,1.259751,5.013415,79.334019,96.592911,0.259235,0,0,?,?,?,?,?,?,0.045,0.001,0.03125,0,31.25,0,7975,2276727,254776,?,?,?,?
data_keyboard,4,7,weka.classifiers.functions.LinearRegression,'-S 0 -R 1.0E-8 -num-decimal-places 4',-3364580862046573747,20260322.1817,12567,1396,1.324173,4.401402,80.807169,97.313772,0.249839,0,0,?,?,?,?,?,?,0.048,0.001,0.046875,0,46.875,0,7967,2276727,254776,?,?,?,?
data_keyboard,4,8,weka.classifiers.functions.LinearRegression,'-S 0 -R 1.0E-8 -num-decimal-places 4',-3364580862046573747,20260322.1817,12567,1396,1.427835,6.075192,78.118809,94.135571,0.359433,0,0,?,?,?,?,?,?,0.052,0.001,0.046875,0,46.875,0,7943,2276727,254776,?,?,?,?
data_keyboard,4,9,weka.classifiers.functions.LinearRegression,'-S 0 -R 1.0E-8 -num-decimal-places 4',-3364580862046573747,20260322.1817,12567,1396,1.285252,5.017221,79.501322,96.675607,0.254611,0,0,?,?,?,?,?,?,0.047,0,0.046875,0,46.875,0,7975,2276727,254776,?,?,?,?
data_keyboard,4,10,weka.classifiers.functions.LinearRegression,'-S 0 -R 1.0E-8 -num-decimal-places 4',-3364580862046573747,20260322.1817,12567,1396,1.565961,7.200017,79.153787,96.30901,0.2743,0,0,?,?,?,?,?,?,0.054,0.001,0.046875,0,46.875,0,7959,2276727,254776,?,?,?,?
data_keyboard,5,1,weka.classifiers.functions.LinearRegression,'-S 0 -R 1.0E-8 -num-decimal-places 4',-3364580862046573747,20260322.1817,12566,1397,1.437884,6.276641,82.301418,97.565929,0.219768,0,0,?,?,?,?,?,?,0.048,0.001,0.046875,0,46.875,0,7959,2276546,254957,?,?,?,?
data_keyboard,5,2,weka.classifiers.functions.LinearRegression,'-S 0 -R 1.0E-8 -num-decimal-places 4',-3364580862046573747,20260322.1817,12566,1397,1.231742,4.257567,78.274319,96.025497,0.286452,0,0,?,?,?,?,?,?,0.047,0,0.0625,0,62.5,0,7959,2276546,254957,?,?,?,?
data_keyboard,5,3,weka.classifiers.functions.LinearRegression,'-S 0 -R 1.0E-8 -num-decimal-places 4',-3364580862046573747,20260322.1817,12566,1397,1.319635,5.050157,77.383498,96.722644,0.254937,0,0,?,?,?,?,?,?,0.051,0.001,0.046875,0,46.875,0,7975,2276546,254957,?,?,?,?
data_keyboard,5,4,weka.classifiers.functions.LinearRegression,'-S 0 -R 1.0E-8 -num-decimal-places 4',-3364580862046573747,20260322.1817,12567,1396,1.221673,4.292631,78.342476,96.668224,0.275028,0,0,?,?,?,?,?,?,0.062,0,0.0625,0,62.5,0,7967,2276727,254776,?,?,?,?
data_keyboard,5,5,weka.classifiers.functions.LinearRegression,'-S 0 -R 1.0E-8 -num-decimal-places 4',-3364580862046573747,20260322.1817,12567,1396,1.21735,3.468705,77.934984,94.282626,0.337588,0,0,?,?,?,?,?,?,0.078,0.001,0.078125,0,78.125,0,7967,2276727,254776,?,?,?,?
data_keyboard,5,6,weka.classifiers.functions.LinearRegression,'-S 0 -R 1.0E-8 -num-decimal-places 4',-3364580862046573747,20260322.1817,12567,1396,1.205624,4.222971,78.365622,95.519685,0.294558,0,0,?,?,?,?,?,?,0.081,0.001,0.078125,0,78.125,0,7951,2276727,254776,?,?,?,?
data_keyboard,5,7,weka.classifiers.functions.LinearRegression,'-S 0 -R 1.0E-8 -num-decimal-places 4',-3364580862046573747,20260322.1817,12567,1396,1.431007,6.313033,76.899487,97.229313,0.233672,0,0,?,?,?,?,?,?,0.053,0.001,0.046875,0,46.875,0,7983,2276727,254776,?,?,?,?
data_keyboard,5,8,weka.classifiers.functions.LinearRegression,'-S 0 -R 1.0E-8 -num-decimal-places 4',-3364580862046573747,20260322.1817,12567,1396,1.359673,5.098241,80.803712,97.176894,0.238929,0,0,?,?,?,?,?,?,0.061,0.001,0.0625,0,62.5,0,7951,2276727,254776,?,?,?,?
data_keyboard,5,9,weka.classifiers.functions.LinearRegression,'-S 0 -R 1.0E-8 -num-decimal-places 4',-3364580862046573747,20260322.1817,12567,1396,1.227852,3.812328,79.016456,85.788473,0.570999,0,0,?,?,?,?,?,?,0.062,0.001,0.0625,0,62.5,0,7951,2276727,254776,?,?,?,?
data_keyboard,5,10,weka.classifiers.functions.LinearRegression,'-S 0 -R 1.0E-8 -num-decimal-places 4',-3364580862046573747,20260322.1817,12567,1396,1.358229,5.668808,78.939357,96.707028,0.25504,0,0,?,?,?,?,?,?,0.054,0.001,0.046875,0,46.875,0,7959,2276727,254776,?,?,?,?
data_keyboard,6,1,weka.classifiers.functions.LinearRegression,'-S 0 -R 1.0E-8 -num-decimal-places 4',-3364580862046573747,20260322.1817,12566,1397,1.155524,4.036315,78.424371,92.859468,0.3749,0,0,?,?,?,?,?,?,0.045,0.001,0.046875,0,46.875,0,7975,2276546,254957,?,?,?,?
data_keyboard,6,2,weka.classifiers.functions.LinearRegression,'-S 0 -R 1.0E-8 -num-decimal-places 4',-3364580862046573747,20260322.1817,12566,1397,1.094857,2.066377,75.22784,84.248107,0.541879,0,0,?,?,?,?,?,?,0.051,0.001,0.046875,0,46.875,0,7967,2276546,254957,?,?,?,?
data_keyboard,6,3,weka.classifiers.functions.LinearRegression,'-S 0 -R 1.0E-8 -num-decimal-places 4',-3364580862046573747,20260322.1817,12566,1397,1.364749,5.638641,80.566862,96.464079,0.266451,0,0,?,?,?,?,?,?,0.053,0,0.03125,0,31.25,0,7959,2276546,254957,?,?,?,?
data_keyboard,6,4,weka.classifiers.functions.LinearRegression,'-S 0 -R 1.0E-8 -num-decimal-places 4',-3364580862046573747,20260322.1817,12567,1396,1.384189,5.69452,78.638967,96.648186,0.255387,0,0,?,?,?,?,?,?,0.052,0.002,0.046875,0,46.875,0,7959,2276727,254776,?,?,?,?
data_keyboard,6,5,weka.classifiers.functions.LinearRegression,'-S 0 -R 1.0E-8 -num-decimal-places 4',-3364580862046573747,20260322.1817,12567,1396,1.345719,5.684179,77.915933,97.504568,0.223213,0,0,?,?,?,?,?,?,0.05,0,0.0625,0,62.5,0,7975,2276727,254776,?,?,?,?
data_keyboard,6,6,weka.classifiers.functions.LinearRegression,'-S 0 -R 1.0E-8 -num-decimal-places 4',-3364580862046573747,20260322.1817,12567,1396,1.353587,5.454911,79.970998,93.337061,0.378783,0,0,?,?,?,?,?,?,0.055,0.001,0.0625,0,62.5,0,7943,2276727,254776,?,?,?,?
data_keyboard,6,7,weka.classifiers.functions.LinearRegression,'-S 0 -R 1.0E-8 -num-decimal-places 4',-3364580862046573747,20260322.1817,12567,1396,1.434101,5.776809,81.157799,97.833317,0.210967,0,0,?,?,?,?,?,?,0.06,0,0.046875,0,46.875,0,7951,2276727,254776,?,?,?,?
data_keyboard,6,8,weka.classifiers.functions.LinearRegression,'-S 0 -R 1.0E-8 -num-decimal-places 4',-3364580862046573747,20260322.1817,12567,1396,1.290258,5.055713,79.238094,97.087391,0.244375,0,0,?,?,?,?,?,?,0.062,0.001,0.0625,0,62.5,0,7967,2276727,254776,?,?,?,?
data_keyboard,6,9,weka.classifiers.functions.LinearRegression,'-S 0 -R 1.0E-8 -num-decimal-places 4',-3364580862046573747,20260322.1817,12567,1396,1.274465,4.277883,80.326266,96.30279,0.279119,0,0,?,?,?,?,?,?,0.049,0.001,0.046875,0,46.875,0,7975,2276727,254776,?,?,?,?
data_keyboard,6,10,weka.classifiers.functions.LinearRegression,'-S 0 -R 1.0E-8 -num-decimal-places 4',-3364580862046573747,20260322.1817,12567,1396,1.32297,4.410187,76.875188,95.594243,0.298262,0,0,?,?,?,?,?,?,0.061,0.001,0.0625,0,62.5,0,7959,2276727,254776,?,?,?,?
data_keyboard,7,1,weka.classifiers.functions.LinearRegression,'-S 0 -R 1.0E-8 -num-decimal-places 4',-3364580862046573747,20260322.1817,12566,1397,1.272236,4.361981,78.171105,96.042276,0.284456,0,0,?,?,?,?,?,?,0.056,0.001,0.03125,0,31.25,0,7967,2276546,254957,?,?,?,?
data_keyboard,7,2,weka.classifiers.functions.LinearRegression,'-S 0 -R 1.0E-8 -num-decimal-places 4',-3364580862046573747,20260322.1817,12566,1397,1.400581,6.730545,78.105937,97.475406,0.223386,0,0,?,?,?,?,?,?,0.051,0.001,0.0625,0,62.5,0,7967,2276546,254957,?,?,?,?
data_keyboard,7,3,weka.classifiers.functions.LinearRegression,'-S 0 -R 1.0E-8 -num-decimal-places 4',-3364580862046573747,20260322.1817,12566,1397,1.180809,3.336969,76.976669,92.759125,0.379111,0,0,?,?,?,?,?,?,0.056,0.001,0.046875,0,46.875,0,7959,2276546,254957,?,?,?,?
data_keyboard,7,4,weka.classifiers.functions.LinearRegression,'-S 0 -R 1.0E-8 -num-decimal-places 4',-3364580862046573747,20260322.1817,12567,1396,1.643954,7.303847,82.447197,96.843152,0.256053,0,0,?,?,?,?,?,?,0.046,0.001,0.046875,0,46.875,0,7975,2276727,254776,?,?,?,?
data_keyboard,7,5,weka.classifiers.functions.LinearRegression,'-S 0 -R 1.0E-8 -num-decimal-places 4',-3364580862046573747,20260322.1817,12567,1396,1.242455,4.255697,77.938129,94.796988,0.317824,0,0,?,?,?,?,?,?,0.056,0,0.046875,0,46.875,0,7959,2276727,254776,?,?,?,?
data_keyboard,7,6,weka.classifiers.functions.LinearRegression,'-S 0 -R 1.0E-8 -num-decimal-places 4',-3364580862046573747,20260322.1817,12567,1396,1.269712,4.73177,78.30702,91.240672,0.434582,0,0,?,?,?,?,?,?,0.055,0.001,0.046875,0,46.875,0,7943,2276727,254776,?,?,?,?
data_keyboard,7,7,weka.classifiers.functions.LinearRegression,'-S 0 -R 1.0E-8 -num-decimal-places 4',-3364580862046573747,20260322.1817,12567,1396,1.358935,5.113954,78.160688,96.558884,0.261558,0,0,?,?,?,?,?,?,0.053,0.001,0.0625,0,62.5,0,7967,2276727,254776,?,?,?,?
data_keyboard,7,8,weka.classifiers.functions.LinearRegression,'-S 0 -R 1.0E-8 -num-decimal-places 4',-3364580862046573747,20260322.1817,12567,1396,1.129541,3.25946,78.77782,94.520548,0.332246,0,0,?,?,?,?,?,?,0.052,0.002,0.046875,0,46.875,0,7951,2276727,254776,?,?,?,?
data_keyboard,7,9,weka.classifiers.functions.LinearRegression,'-S 0 -R 1.0E-8 -num-decimal-places 4',-3364580862046573747,20260322.1817,12567,1396,1.379302,5.157015,81.402759,98.355422,0.199713,0,0,?,?,?,?,?,?,0.045,0.001,0.046875,0,46.875,0,7975,2276727,254776,?,?,?,?
data_keyboard,7,10,weka.classifiers.functions.LinearRegression,'-S 0 -R 1.0E-8 -num-decimal-places 4',-3364580862046573747,20260322.1817,12567,1396,1.129206,3.276732,76.782605,93.46011,0.365943,0,0,?,?,?,?,?,?,0.053,0.001,0.0625,0,62.5,0,7951,2276727,254776,?,?,?,?
data_keyboard,8,1,weka.classifiers.functions.LinearRegression,'-S 0 -R 1.0E-8 -num-decimal-places 4',-3364580862046573747,20260322.1817,12566,1397,1.226655,4.938069,75.293953,96.224203,0.275927,0,0,?,?,?,?,?,?,0.048,0.001,0.046875,0,46.875,0,7975,2276546,254957,?,?,?,?
data_keyboard,8,2,weka.classifiers.functions.LinearRegression,'-S 0 -R 1.0E-8 -num-decimal-places 4',-3364580862046573747,20260322.1817,12566,1397,1.242294,3.494083,79.83871,94.752169,0.334959,0,0,?,?,?,?,?,?,0.056,0,0.046875,0,46.875,0,7951,2276546,254957,?,?,?,?
data_keyboard,8,3,weka.classifiers.functions.LinearRegression,'-S 0 -R 1.0E-8 -num-decimal-places 4',-3364580862046573747,20260322.1817,12566,1397,1.455805,6.32148,79.25097,97.674652,0.215479,0,0,?,?,?,?,?,?,0.05,0,0.046875,0,46.875,0,7967,2276546,254957,?,?,?,?
data_keyboard,8,4,weka.classifiers.functions.LinearRegression,'-S 0 -R 1.0E-8 -num-decimal-places 4',-3364580862046573747,20260322.1817,12567,1396,1.409648,6.165332,80.679172,96.05903,0.284044,0,0,?,?,?,?,?,?,0.056,0.001,0.0625,0,62.5,0,7959,2276727,254776,?,?,?,?
data_keyboard,8,5,weka.classifiers.functions.LinearRegression,'-S 0 -R 1.0E-8 -num-decimal-places 4',-3364580862046573747,20260322.1817,12567,1396,1.423739,5.711296,80.127839,96.912386,0.246818,0,0,?,?,?,?,?,?,0.056,0.001,0.046875,0,46.875,0,7959,2276727,254776,?,?,?,?
data_keyboard,8,6,weka.classifiers.functions.LinearRegression,'-S 0 -R 1.0E-8 -num-decimal-places 4',-3364580862046573747,20260322.1817,12567,1396,1.276281,3.491296,79.477478,94.000188,0.346708,0,0,?,?,?,?,?,?,0.054,0.001,0.046875,0,46.875,0,7975,2276727,254776,?,?,?,?
data_keyboard,8,7,weka.classifiers.functions.LinearRegression,'-S 0 -R 1.0E-8 -num-decimal-places 4',-3364580862046573747,20260322.1817,12567,1396,1.21998,4.901589,76.534537,96.106856,0.276736,0,0,?,?,?,?,?,?,0.049,0.001,0.046875,0,46.875,0,7967,2276727,254776,?,?,?,?
data_keyboard,8,8,weka.classifiers.functions.LinearRegression,'-S 0 -R 1.0E-8 -num-decimal-places 4',-3364580862046573747,20260322.1817,12567,1396,1.248417,4.296471,79.502935,95.784692,0.289846,0,0,?,?,?,?,?,?,0.048,0.001,0.046875,0,46.875,0,7975,2276727,254776,?,?,?,?
data_keyboard,8,9,weka.classifiers.functions.LinearRegression,'-S 0 -R 1.0E-8 -num-decimal-places 4',-3364580862046573747,20260322.1817,12567,1396,1.280431,5.08353,79.494646,97.865235,0.212118,0,0,?,?,?,?,?,?,0.053,0.001,0.0625,0,62.5,0,7967,2276727,254776,?,?,?,?
data_keyboard,8,10,weka.classifiers.functions.LinearRegression,'-S 0 -R 1.0E-8 -num-decimal-places 4',-3364580862046573747,20260322.1817,12567,1396,1.227774,3.950798,77.951128,87.853814,0.514234,0,0,?,?,?,?,?,?,0.058,0,0.0625,0,62.5,0,7943,2276727,254776,?,?,?,?
data_keyboard,9,1,weka.classifiers.functions.LinearRegression,'-S 0 -R 1.0E-8 -num-decimal-places 4',-3364580862046573747,20260322.1817,12566,1397,1.286168,4.347294,79.148335,95.700717,0.297514,0,0,?,?,?,?,?,?,0.052,0.001,0.046875,0,46.875,0,7951,2276546,254957,?,?,?,?
data_keyboard,9,2,weka.classifiers.functions.LinearRegression,'-S 0 -R 1.0E-8 -num-decimal-places 4',-3364580862046573747,20260322.1817,12566,1397,1.116053,3.272918,79.054744,94.304076,0.345157,0,0,?,?,?,?,?,?,0.048,0,0.046875,0,46.875,0,7967,2276546,254957,?,?,?,?
data_keyboard,9,3,weka.classifiers.functions.LinearRegression,'-S 0 -R 1.0E-8 -num-decimal-places 4',-3364580862046573747,20260322.1817,12566,1397,1.347617,5.57218,79.398463,95.338289,0.310294,0,0,?,?,?,?,?,?,0.053,0,0.046875,0,46.875,0,7975,2276546,254957,?,?,?,?
data_keyboard,9,4,weka.classifiers.functions.LinearRegression,'-S 0 -R 1.0E-8 -num-decimal-places 4',-3364580862046573747,20260322.1817,12567,1396,1.147414,3.353626,75.901125,93.424559,0.359019,0,0,?,?,?,?,?,?,0.049,0.001,0.046875,0,46.875,0,7967,2276727,254776,?,?,?,?
data_keyboard,9,5,weka.classifiers.functions.LinearRegression,'-S 0 -R 1.0E-8 -num-decimal-places 4',-3364580862046573747,20260322.1817,12567,1396,1.416688,6.761168,80.658803,98.036332,0.196592,0,0,?,?,?,?,?,?,0.059,0.001,0.046875,0,46.875,0,7967,2276727,254776,?,?,?,?
data_keyboard,9,6,weka.classifiers.functions.LinearRegression,'-S 0 -R 1.0E-8 -num-decimal-places 4',-3364580862046573747,20260322.1817,12567,1396,1.451892,6.28874,80.328829,97.443554,0.224198,0,0,?,?,?,?,?,?,0.048,0,0.046875,0,46.875,0,7975,2276727,254776,?,?,?,?
data_keyboard,9,7,weka.classifiers.functions.LinearRegression,'-S 0 -R 1.0E-8 -num-decimal-places 4',-3364580862046573747,20260322.1817,12567,1396,1.269531,4.317489,77.855915,95.375671,0.302834,0,0,?,?,?,?,?,?,0.053,0,0.046875,0,46.875,0,7967,2276727,254776,?,?,?,?
data_keyboard,9,8,weka.classifiers.functions.LinearRegression,'-S 0 -R 1.0E-8 -num-decimal-places 4',-3364580862046573747,20260322.1817,12567,1396,1.166549,4.21197,76.58133,95.75209,0.295039,0,0,?,?,?,?,?,?,0.055,0.001,0.03125,0.015625,31.25,15.625,7951,2276727,254776,?,?,?,?
data_keyboard,9,9,weka.classifiers.functions.LinearRegression,'-S 0 -R 1.0E-8 -num-decimal-places 4',-3364580862046573747,20260322.1817,12567,1396,1.428457,4.901249,80.414035,91.896465,0.411874,0,0,?,?,?,?,?,?,0.067,0.001,0.078125,0,78.125,0,7943,2276727,254776,?,?,?,?
data_keyboard,9,10,weka.classifiers.functions.LinearRegression,'-S 0 -R 1.0E-8 -num-decimal-places 4',-3364580862046573747,20260322.1817,12567,1396,1.389557,5.101288,78.875903,96.952107,0.24959,0,0,?,?,?,?,?,?,0.054,0.001,0.0625,0,62.5,0,7959,2276727,254776,?,?,?,?
data_keyboard,10,1,weka.classifiers.functions.LinearRegression,'-S 0 -R 1.0E-8 -num-decimal-places 4',-3364580862046573747,20260322.1817,12566,1397,1.153847,2.901755,77.244141,81.156891,0.609801,0,0,?,?,?,?,?,?,0.06,0.001,0.0625,0,62.5,0,7943,2276546,254957,?,?,?,?
data_keyboard,10,2,weka.classifiers.functions.LinearRegression,'-S 0 -R 1.0E-8 -num-decimal-places 4',-3364580862046573747,20260322.1817,12566,1397,1.290428,4.941697,78.015599,95.563019,0.294599,0,0,?,?,?,?,?,?,0.058,0,0.046875,0,46.875,0,7951,2276546,254957,?,?,?,?
data_keyboard,10,3,weka.classifiers.functions.LinearRegression,'-S 0 -R 1.0E-8 -num-decimal-places 4',-3364580862046573747,20260322.1817,12566,1397,1.283616,4.363621,79.447132,96.286791,0.273063,0,0,?,?,?,?,?,?,0.054,0,0.0625,0,62.5,0,7967,2276546,254957,?,?,?,?
data_keyboard,10,4,weka.classifiers.functions.LinearRegression,'-S 0 -R 1.0E-8 -num-decimal-places 4',-3364580862046573747,20260322.1817,12567,1396,1.302908,4.374989,79.498325,95.772788,0.290362,0,0,?,?,?,?,?,?,0.053,0,0.046875,0,46.875,0,7959,2276727,254776,?,?,?,?
data_keyboard,10,5,weka.classifiers.functions.LinearRegression,'-S 0 -R 1.0E-8 -num-decimal-places 4',-3364580862046573747,20260322.1817,12567,1396,1.304357,5.538895,77.93943,95.451888,0.300119,0,0,?,?,?,?,?,?,0.049,0,0.046875,0,46.875,0,7967,2276727,254776,?,?,?,?
data_keyboard,10,6,weka.classifiers.functions.LinearRegression,'-S 0 -R 1.0E-8 -num-decimal-places 4',-3364580862046573747,20260322.1817,12567,1396,1.081953,2.037092,77.837471,86.879643,0.516191,0,0,?,?,?,?,?,?,0.057,0,0.046875,0,46.875,0,7951,2276727,254776,?,?,?,?
data_keyboard,10,7,weka.classifiers.functions.LinearRegression,'-S 0 -R 1.0E-8 -num-decimal-places 4',-3364580862046573747,20260322.1817,12567,1396,1.21649,4.231973,77.081181,94.927002,0.315403,0,0,?,?,?,?,?,?,0.046,0.001,0.046875,0,46.875,0,7983,2276727,254776,?,?,?,?
data_keyboard,10,8,weka.classifiers.functions.LinearRegression,'-S 0 -R 1.0E-8 -num-decimal-places 4',-3364580862046573747,20260322.1817,12567,1396,1.368176,5.712265,79.895211,97.817803,0.211812,0,0,?,?,?,?,?,?,0.053,0.001,0.046875,0,46.875,0,7967,2276727,254776,?,?,?,?
data_keyboard,10,9,weka.classifiers.functions.LinearRegression,'-S 0 -R 1.0E-8 -num-decimal-places 4',-3364580862046573747,20260322.1817,12567,1396,1.78909,8.658873,82.030188,98.505309,0.172412,0,0,?,?,?,?,?,?,0.049,0.001,0.046875,0,46.875,0,7967,2276727,254776,?,?,?,?
data_keyboard,10,10,weka.classifiers.functions.LinearRegression,'-S 0 -R 1.0E-8 -num-decimal-places 4',-3364580862046573747,20260322.1817,12567,1396,1.205384,3.458493,77.07914,93.958647,0.346651,0,0,?,?,?,?,?,?,0.052,0.001,0.046875,0,46.875,0,7959,2276727,254776,?,?,?,?
raw_data_agent,1,1,weka.classifiers.functions.LinearRegression,'-S 0 -R 1.0E-8 -num-decimal-places 4',-3364580862046573747,20260322.1817,10598,1178,0.641599,3.155631,86.869983,97.148064,0.236971,0,0,?,?,?,?,?,?,0.018,0.001,0.015625,0,15.625,0,6363,1156766,129986,?,?,?,?
raw_data_agent,1,2,weka.classifiers.functions.LinearRegression,'-S 0 -R 1.0E-8 -num-decimal-places 4',-3364580862046573747,20260322.1817,10598,1178,0.654763,3.171354,87.614931,97.509001,0.222173,0,0,?,?,?,?,?,?,0.016,0.001,0.015625,0,15.625,0,6371,1156766,129986,?,?,?,?
raw_data_agent,1,3,weka.classifiers.functions.LinearRegression,'-S 0 -R 1.0E-8 -num-decimal-places 4',-3364580862046573747,20260322.1817,10598,1178,0.612916,3.078664,87.912168,97.944856,0.205237,0,0,?,?,?,?,?,?,0.021,0,0.03125,0,31.25,0,6363,1156766,129986,?,?,?,?
raw_data_agent,1,4,weka.classifiers.functions.LinearRegression,'-S 0 -R 1.0E-8 -num-decimal-places 4',-3364580862046573747,20260322.1817,10598,1178,0.543134,1.187613,84.986626,86.591917,0.505594,0,0,?,?,?,?,?,?,0.018,0,0.03125,0,31.25,0,6363,1156766,129986,?,?,?,?
raw_data_agent,1,5,weka.classifiers.functions.LinearRegression,'-S 0 -R 1.0E-8 -num-decimal-places 4',-3364580862046573747,20260322.1817,10598,1178,0.600667,3.105623,82.014336,96.622979,0.257814,0,0,?,?,?,?,?,?,0.023,0,0.03125,0,31.25,0,6363,1156766,129986,?,?,?,?
raw_data_agent,1,6,weka.classifiers.functions.LinearRegression,'-S 0 -R 1.0E-8 -num-decimal-places 4',-3364580862046573747,20260322.1817,10598,1178,0.59527,3.064017,86.011835,97.351642,0.22909,0,0,?,?,?,?,?,?,0.019,0.001,0.015625,0,15.625,0,6363,1156766,129986,?,?,?,?
raw_data_agent,1,7,weka.classifiers.functions.LinearRegression,'-S 0 -R 1.0E-8 -num-decimal-places 4',-3364580862046573747,20260322.1817,10599,1177,0.697564,4.277027,85.201059,98.068404,0.19853,0,0,?,?,?,?,?,?,0.019,0,0.03125,0,31.25,0,6363,1156875,129877,?,?,?,?
raw_data_agent,1,8,weka.classifiers.functions.LinearRegression,'-S 0 -R 1.0E-8 -num-decimal-places 4',-3364580862046573747,20260322.1817,10599,1177,0.735827,5.098168,86.218676,98.62033,0.166555,0,0,?,?,?,?,?,?,0.021,0.001,0.03125,0,31.25,0,6363,1156875,129877,?,?,?,?
raw_data_agent,1,9,weka.classifiers.functions.LinearRegression,'-S 0 -R 1.0E-8 -num-decimal-places 4',-3364580862046573747,20260322.1817,10599,1177,0.569004,1.404512,83.650672,86.877558,0.495187,0,0,?,?,?,?,?,?,0.022,0,0.015625,0,15.625,0,6363,1156875,129877,?,?,?,?
raw_data_agent,1,10,weka.classifiers.functions.LinearRegression,'-S 0 -R 1.0E-8 -num-decimal-places 4',-3364580862046573747,20260322.1817,10599,1177,0.817635,5.191815,89.010503,98.958153,0.144026,0,0,?,?,?,?,?,?,0.019,0.001,0.015625,0,15.625,0,6379,1156875,129877,?,?,?,?
raw_data_agent,2,1,weka.classifiers.functions.LinearRegression,'-S 0 -R 1.0E-8 -num-decimal-places 4',-3364580862046573747,20260322.1817,10598,1178,0.627415,3.102151,88.516307,97.56874,0.220521,0,0,?,?,?,?,?,?,0.02,0,0.015625,0,15.625,0,6363,1156766,129986,?,?,?,?
raw_data_agent,2,2,weka.classifiers.functions.LinearRegression,'-S 0 -R 1.0E-8 -num-decimal-places 4',-3364580862046573747,20260322.1817,10598,1178,0.681242,4.236044,85.580253,98.157729,0.191097,0,0,?,?,?,?,?,?,0.023,0,0.015625,0,15.625,0,6363,1156766,129986,?,?,?,?
raw_data_agent,2,3,weka.classifiers.functions.LinearRegression,'-S 0 -R 1.0E-8 -num-decimal-places 4',-3364580862046573747,20260322.1817,10598,1178,0.74525,4.299839,87.91013,98.15591,0.188339,0,0,?,?,?,?,?,?,0.023,0.001,0.015625,0,15.625,0,6371,1156766,129986,?,?,?,?
raw_data_agent,2,4,weka.classifiers.functions.LinearRegression,'-S 0 -R 1.0E-8 -num-decimal-places 4',-3364580862046573747,20260322.1817,10598,1178,0.536997,1.078644,83.720245,83.915919,0.546087,0,0,?,?,?,?,?,?,0.017,0.001,0.015625,0,15.625,0,6363,1156766,129986,?,?,?,?
raw_data_agent,2,5,weka.classifiers.functions.LinearRegression,'-S 0 -R 1.0E-8 -num-decimal-places 4',-3364580862046573747,20260322.1817,10598,1178,0.638664,3.197824,85.977367,97.551638,0.217597,0,0,?,?,?,?,?,?,0.018,0,0.03125,0,31.25,0,6363,1156766,129986,?,?,?,?
raw_data_agent,2,6,weka.classifiers.functions.LinearRegression,'-S 0 -R 1.0E-8 -num-decimal-places 4',-3364580862046573747,20260322.1817,10598,1178,0.63705,3.168452,85.236758,97.554127,0.221067,0,0,?,?,?,?,?,?,0.017,0.001,0.015625,0,15.625,0,6363,1156766,129986,?,?,?,?
raw_data_agent,2,7,weka.classifiers.functions.LinearRegression,'-S 0 -R 1.0E-8 -num-decimal-places 4',-3364580862046573747,20260322.1817,10599,1177,0.599639,3.114286,86.348379,97.654482,0.211604,0,0,?,?,?,?,?,?,0.019,0.001,0.015625,0,15.625,0,6363,1156875,129877,?,?,?,?
raw_data_agent,2,8,weka.classifiers.functions.LinearRegression,'-S 0 -R 1.0E-8 -num-decimal-places 4',-3364580862046573747,20260322.1817,10599,1177,0.793973,5.176275,86.08424,98.576459,0.165188,0,0,?,?,?,?,?,?,0.016,0.001,0.015625,0,15.625,0,6371,1156875,129877,?,?,?,?
raw_data_agent,2,9,weka.classifiers.functions.LinearRegression,'-S 0 -R 1.0E-8 -num-decimal-places 4',-3364580862046573747,20260322.1817,10599,1177,0.55902,1.270324,84.993544,85.507894,0.518678,0,0,?,?,?,?,?,?,0.019,0,0.015625,0,15.625,0,6363,1156875,129877,?,?,?,?
raw_data_agent,2,10,weka.classifiers.functions.LinearRegression,'-S 0 -R 1.0E-8 -num-decimal-places 4',-3364580862046573747,20260322.1817,10599,1177,0.638432,4.189868,83.685443,98.190776,0.189389,0,0,?,?,?,?,?,?,0.018,0,0.015625,0,15.625,0,6363,1156875,129877,?,?,?,?
raw_data_agent,3,1,weka.classifiers.functions.LinearRegression,'-S 0 -R 1.0E-8 -num-decimal-places 4',-3364580862046573747,20260322.1817,10598,1178,0.641305,3.149388,81.443139,96.25453,0.272903,0,0,?,?,?,?,?,?,0.017,0,0,0,0,0,6363,1156766,129986,?,?,?,?
raw_data_agent,3,2,weka.classifiers.functions.LinearRegression,'-S 0 -R 1.0E-8 -num-decimal-places 4',-3364580862046573747,20260322.1817,10598,1178,0.534966,1.053682,85.351699,80.805275,0.590042,0,0,?,?,?,?,?,?,0.022,0.001,0,0,0,0,6363,1156766,129986,?,?,?,?
raw_data_agent,3,3,weka.classifiers.functions.LinearRegression,'-S 0 -R 1.0E-8 -num-decimal-places 4',-3364580862046573747,20260322.1817,10598,1178,0.707384,4.262677,86.849509,98.239049,0.186261,0,0,?,?,?,?,?,?,0.016,0.001,0.015625,0,15.625,0,6387,1156766,129986,?,?,?,?
raw_data_agent,3,4,weka.classifiers.functions.LinearRegression,'-S 0 -R 1.0E-8 -num-decimal-places 4',-3364580862046573747,20260322.1817,10598,1178,0.665291,3.216367,88.336443,97.739001,0.212582,0,0,?,?,?,?,?,?,0.017,0.002,0.03125,0,31.25,0,6363,1156766,129986,?,?,?,?
raw_data_agent,3,5,weka.classifiers.functions.LinearRegression,'-S 0 -R 1.0E-8 -num-decimal-places 4',-3364580862046573747,20260322.1817,10598,1178,0.574478,1.354586,87.647015,87.756854,0.479842,0,0,?,?,?,?,?,?,0.019,0.001,0.015625,0,15.625,0,6363,1156766,129986,?,?,?,?
raw_data_agent,3,6,weka.classifiers.functions.LinearRegression,'-S 0 -R 1.0E-8 -num-decimal-places 4',-3364580862046573747,20260322.1817,10598,1178,0.605601,3.125137,81.575081,97.070061,0.238993,0,0,?,?,?,?,?,?,0.018,0,0.015625,0,15.625,0,6363,1156766,129986,?,?,?,?
raw_data_agent,3,7,weka.classifiers.functions.LinearRegression,'-S 0 -R 1.0E-8 -num-decimal-places 4',-3364580862046573747,20260322.1817,10599,1177,0.614632,3.11804,86.655063,97.682821,0.21623,0,0,?,?,?,?,?,?,0.016,0.001,0.015625,0,15.625,0,6363,1156875,129877,?,?,?,?
raw_data_agent,3,8,weka.classifiers.functions.LinearRegression,'-S 0 -R 1.0E-8 -num-decimal-places 4',-3364580862046573747,20260322.1817,10599,1177,0.774881,5.156229,86.288003,98.649778,0.1655,0,0,?,?,?,?,?,?,0.018,0,0.015625,0,15.625,0,6363,1156875,129877,?,?,?,?
raw_data_agent,3,9,weka.classifiers.functions.LinearRegression,'-S 0 -R 1.0E-8 -num-decimal-places 4',-3364580862046573747,20260322.1817,10599,1177,0.667962,4.213436,88.462665,98.590579,0.167945,0,0,?,?,?,?,?,?,0.021,0,0.015625,0,15.625,0,6387,1156875,129877,?,?,?,?
raw_data_agent,3,10,weka.classifiers.functions.LinearRegression,'-S 0 -R 1.0E-8 -num-decimal-places 4',-3364580862046573747,20260322.1817,10599,1177,0.685535,4.23794,88.261849,98.641872,0.161868,0,0,?,?,?,?,?,?,0.019,0,0.015625,0,15.625,0,6363,1156875,129877,?,?,?,?
raw_data_agent,4,1,weka.classifiers.functions.LinearRegression,'-S 0 -R 1.0E-8 -num-decimal-places 4',-3364580862046573747,20260322.1817,10598,1178,0.696593,3.241449,86.839304,97.127742,0.236485,0,0,?,?,?,?,?,?,0.019,0.001,0.03125,0,31.25,0,6363,1156766,129986,?,?,?,?
raw_data_agent,4,2,weka.classifiers.functions.LinearRegression,'-S 0 -R 1.0E-8 -num-decimal-places 4',-3364580862046573747,20260322.1817,10598,1178,0.522302,1.014908,87.210869,82.425963,0.569877,0,0,?,?,?,?,?,?,0.021,0,0.015625,0,15.625,0,6363,1156766,129986,?,?,?,?
raw_data_agent,4,3,weka.classifiers.functions.LinearRegression,'-S 0 -R 1.0E-8 -num-decimal-places 4',-3364580862046573747,20260322.1817,10598,1178,0.851222,5.908909,88.652819,99.131182,0.13221,0,0,?,?,?,?,?,?,0.018,0,0,0,0,0,6363,1156766,129986,?,?,?,?
raw_data_agent,4,4,weka.classifiers.functions.LinearRegression,'-S 0 -R 1.0E-8 -num-decimal-places 4',-3364580862046573747,20260322.1817,10598,1178,0.769057,5.183644,86.076858,98.912565,0.145249,0,0,?,?,?,?,?,?,0.013,0,0,0,0,0,6403,1156766,129986,?,?,?,?
raw_data_agent,4,5,weka.classifiers.functions.LinearRegression,'-S 0 -R 1.0E-8 -num-decimal-places 4',-3364580862046573747,20260322.1817,10598,1178,0.609955,3.138462,84.46728,96.738505,0.252761,0,0,?,?,?,?,?,?,0.017,0.001,0.015625,0,15.625,0,6363,1156766,129986,?,?,?,?
raw_data_agent,4,6,weka.classifiers.functions.LinearRegression,'-S 0 -R 1.0E-8 -num-decimal-places 4',-3364580862046573747,20260322.1817,10598,1178,0.628278,3.123019,84.251223,97.036484,0.241584,0,0,?,?,?,?,?,?,0.017,0,0.015625,0,15.625,0,6363,1156766,129986,?,?,?,?
raw_data_agent,4,7,weka.classifiers.functions.LinearRegression,'-S 0 -R 1.0E-8 -num-decimal-places 4',-3364580862046573747,20260322.1817,10599,1177,0.706386,4.268582,83.756503,98.113364,0.191701,0,0,?,?,?,?,?,?,0.016,0,0.015625,0,15.625,0,6363,1156875,129877,?,?,?,?
raw_data_agent,4,8,weka.classifiers.functions.LinearRegression,'-S 0 -R 1.0E-8 -num-decimal-places 4',-3364580862046573747,20260322.1817,10599,1177,0.565965,3.005403,86.337863,97.617092,0.216732,0,0,?,?,?,?,?,?,0.019,0,0.015625,0,15.625,0,6363,1156875,129877,?,?,?,?
raw_data_agent,4,9,weka.classifiers.functions.LinearRegression,'-S 0 -R 1.0E-8 -num-decimal-places 4',-3364580862046573747,20260322.1817,10599,1177,0.549905,1.248943,87.55461,90.473724,0.441264,0,0,?,?,?,?,?,?,0.019,0.001,0.015625,0,15.625,0,6363,1156875,129877,?,?,?,?
raw_data_agent,4,10,weka.classifiers.functions.LinearRegression,'-S 0 -R 1.0E-8 -num-decimal-places 4',-3364580862046573747,20260322.1817,10599,1177,0.571974,1.243089,85.303087,84.864799,0.529134,0,0,?,?,?,?,?,?,0.017,0,0.015625,0,15.625,0,6363,1156875,129877,?,?,?,?
raw_data_agent,5,1,weka.classifiers.functions.LinearRegression,'-S 0 -R 1.0E-8 -num-decimal-places 4',-3364580862046573747,20260322.1817,10598,1178,0.690211,3.322162,88.764232,97.498234,0.222345,0,0,?,?,?,?,?,?,0.02,0,0.015625,0,15.625,0,6363,1156766,129986,?,?,?,?
raw_data_agent,5,2,weka.classifiers.functions.LinearRegression,'-S 0 -R 1.0E-8 -num-decimal-places 4',-3364580862046573747,20260322.1817,10598,1178,0.620403,3.076193,83.982338,96.350458,0.26951,0,0,?,?,?,?,?,?,0.016,0.002,0.015625,0,15.625,0,6363,1156766,129986,?,?,?,?
raw_data_agent,5,3,weka.classifiers.functions.LinearRegression,'-S 0 -R 1.0E-8 -num-decimal-places 4',-3364580862046573747,20260322.1817,10598,1178,0.776087,5.138549,88.091047,98.684565,0.162236,0,0,?,?,?,?,?,?,0.026,0.001,0.015625,0,15.625,0,6363,1156766,129986,?,?,?,?
raw_data_agent,5,4,weka.classifiers.functions.LinearRegression,'-S 0 -R 1.0E-8 -num-decimal-places 4',-3364580862046573747,20260322.1817,10598,1178,0.708808,4.257248,85.193311,98.066928,0.194937,0,0,?,?,?,?,?,?,0.019,0,0.015625,0,15.625,0,6363,1156766,129986,?,?,?,?
raw_data_agent,5,5,weka.classifiers.functions.LinearRegression,'-S 0 -R 1.0E-8 -num-decimal-places 4',-3364580862046573747,20260322.1817,10598,1178,0.714579,4.249443,89.691307,98.687796,0.162466,0,0,?,?,?,?,?,?,0.022,0,0.015625,0,15.625,0,6371,1156766,129986,?,?,?,?
raw_data_agent,5,6,weka.classifiers.functions.LinearRegression,'-S 0 -R 1.0E-8 -num-decimal-places 4',-3364580862046573747,20260322.1817,10598,1178,0.628115,3.189546,80.403669,96.32207,0.271531,0,0,?,?,?,?,?,?,0.018,0.001,0.015625,0,15.625,0,6363,1156766,129986,?,?,?,?
raw_data_agent,5,7,weka.classifiers.functions.LinearRegression,'-S 0 -R 1.0E-8 -num-decimal-places 4',-3364580862046573747,20260322.1817,10599,1177,0.645002,4.194189,83.202081,98.286378,0.184128,0,0,?,?,?,?,?,?,0.02,0,0.015625,0,15.625,0,6363,1156875,129877,?,?,?,?
raw_data_agent,5,8,weka.classifiers.functions.LinearRegression,'-S 0 -R 1.0E-8 -num-decimal-places 4',-3364580862046573747,20260322.1817,10599,1177,0.512335,1.02952,84.094238,84.890908,0.540265,0,0,?,?,?,?,?,?,0.017,0.001,0.03125,0,31.25,0,6363,1156875,129877,?,?,?,?
raw_data_agent,5,9,weka.classifiers.functions.LinearRegression,'-S 0 -R 1.0E-8 -num-decimal-places 4',-3364580862046573747,20260322.1817,10599,1177,0.55485,1.210276,90.160703,90.180481,0.448661,0,0,?,?,?,?,?,?,0.022,0.001,0.015625,0,15.625,0,6363,1156875,129877,?,?,?,?
raw_data_agent,5,10,weka.classifiers.functions.LinearRegression,'-S 0 -R 1.0E-8 -num-decimal-places 4',-3364580862046573747,20260322.1817,10599,1177,0.615829,3.11493,86.590429,97.409511,0.226935,0,0,?,?,?,?,?,?,0.017,0.001,0.015625,0,15.625,0,6363,1156875,129877,?,?,?,?
raw_data_agent,6,1,weka.classifiers.functions.LinearRegression,'-S 0 -R 1.0E-8 -num-decimal-places 4',-3364580862046573747,20260322.1817,10598,1178,0.681493,4.276103,87.02413,98.510084,0.171382,0,0,?,?,?,?,?,?,0.02,0,0.015625,0,15.625,0,6363,1156766,129986,?,?,?,?
raw_data_agent,6,2,weka.classifiers.functions.LinearRegression,'-S 0 -R 1.0E-8 -num-decimal-places 4',-3364580862046573747,20260322.1817,10598,1178,0.607229,3.068104,85.961472,97.56995,0.220341,0,0,?,?,?,?,?,?,0.018,0,0.03125,0,31.25,0,6363,1156766,129986,?,?,?,?
raw_data_agent,6,3,weka.classifiers.functions.LinearRegression,'-S 0 -R 1.0E-8 -num-decimal-places 4',-3364580862046573747,20260322.1817,10598,1178,0.604112,3.052381,86.190922,96.657876,0.256542,0,0,?,?,?,?,?,?,0.019,0,0.015625,0,15.625,0,6363,1156766,129986,?,?,?,?
raw_data_agent,6,4,weka.classifiers.functions.LinearRegression,'-S 0 -R 1.0E-8 -num-decimal-places 4',-3364580862046573747,20260322.1817,10598,1178,0.528583,1.006044,87.127121,81.401743,0.582387,0,0,?,?,?,?,?,?,0.017,0,0.015625,0,15.625,0,6363,1156766,129986,?,?,?,?
raw_data_agent,6,5,weka.classifiers.functions.LinearRegression,'-S 0 -R 1.0E-8 -num-decimal-places 4',-3364580862046573747,20260322.1817,10598,1178,0.579289,1.40802,82.75815,89.679659,0.444445,0,0,?,?,?,?,?,?,0.017,0.001,0.015625,0,15.625,0,6371,1156766,129986,?,?,?,?
raw_data_agent,6,6,weka.classifiers.functions.LinearRegression,'-S 0 -R 1.0E-8 -num-decimal-places 4',-3364580862046573747,20260322.1817,10598,1178,0.702453,4.228927,88.618967,98.101923,0.194731,0,0,?,?,?,?,?,?,0.018,0.001,0.015625,0.015625,15.625,15.625,6363,1156766,129986,?,?,?,?
raw_data_agent,6,7,weka.classifiers.functions.LinearRegression,'-S 0 -R 1.0E-8 -num-decimal-places 4',-3364580862046573747,20260322.1817,10599,1177,0.765845,5.161317,86.536438,98.989702,0.141749,0,0,?,?,?,?,?,?,0.015,0.002,0.015625,0,15.625,0,6371,1156875,129877,?,?,?,?
raw_data_agent,6,8,weka.classifiers.functions.LinearRegression,'-S 0 -R 1.0E-8 -num-decimal-places 4',-3364580862046573747,20260322.1817,10599,1177,0.643392,3.18545,85.22145,97.403835,0.227113,0,0,?,?,?,?,?,?,0.018,0,0.015625,0,15.625,0,6363,1156875,129877,?,?,?,?
raw_data_agent,6,9,weka.classifiers.functions.LinearRegression,'-S 0 -R 1.0E-8 -num-decimal-places 4',-3364580862046573747,20260322.1817,10599,1177,0.72149,4.308148,85.96834,97.835163,0.210201,0,0,?,?,?,?,?,?,0.016,0,0.015625,0,15.625,0,6387,1156875,129877,?,?,?,?
raw_data_agent,6,10,weka.classifiers.functions.LinearRegression,'-S 0 -R 1.0E-8 -num-decimal-places 4',-3364580862046573747,20260322.1817,10599,1177,0.633433,3.144704,84.448207,97.234778,0.234034,0,0,?,?,?,?,?,?,0.018,0.002,0.015625,0,15.625,0,6363,1156875,129877,?,?,?,?
raw_data_agent,7,1,weka.classifiers.functions.LinearRegression,'-S 0 -R 1.0E-8 -num-decimal-places 4',-3364580862046573747,20260322.1817,10598,1178,0.597301,3.107428,85.043598,96.925798,0.246031,0,0,?,?,?,?,?,?,0.02,0.002,0,0,0,0,6363,1156766,129986,?,?,?,?
raw_data_agent,7,2,weka.classifiers.functions.LinearRegression,'-S 0 -R 1.0E-8 -num-decimal-places 4',-3364580862046573747,20260322.1817,10598,1178,0.664486,3.199843,86.487672,97.221129,0.233616,0,0,?,?,?,?,?,?,0.016,0,0.015625,0,15.625,0,6363,1156766,129986,?,?,?,?
raw_data_agent,7,3,weka.classifiers.functions.LinearRegression,'-S 0 -R 1.0E-8 -num-decimal-places 4',-3364580862046573747,20260322.1817,10598,1178,0.740021,4.373106,85.447482,98.089232,0.195676,0,0,?,?,?,?,?,?,0.017,0,0.015625,0,15.625,0,6371,1156766,129986,?,?,?,?
raw_data_agent,7,4,weka.classifiers.functions.LinearRegression,'-S 0 -R 1.0E-8 -num-decimal-places 4',-3364580862046573747,20260322.1817,10598,1178,0.607443,3.142253,82.609173,96.805091,0.251164,0,0,?,?,?,?,?,?,0.015,0,0.015625,0,15.625,0,6363,1156766,129986,?,?,?,?
raw_data_agent,7,5,weka.classifiers.functions.LinearRegression,'-S 0 -R 1.0E-8 -num-decimal-places 4',-3364580862046573747,20260322.1817,10598,1178,0.662739,3.147534,88.410594,97.429731,0.226202,0,0,?,?,?,?,?,?,0.018,0.001,0.015625,0,15.625,0,6363,1156766,129986,?,?,?,?
raw_data_agent,7,6,weka.classifiers.functions.LinearRegression,'-S 0 -R 1.0E-8 -num-decimal-places 4',-3364580862046573747,20260322.1817,10598,1178,0.634592,3.119891,84.010436,96.489376,0.264069,0,0,?,?,?,?,?,?,0.016,0,0.015625,0,15.625,0,6371,1156766,129986,?,?,?,?
raw_data_agent,7,7,weka.classifiers.functions.LinearRegression,'-S 0 -R 1.0E-8 -num-decimal-places 4',-3364580862046573747,20260322.1817,10599,1177,0.78197,5.156778,87.405323,98.754438,0.157373,0,0,?,?,?,?,?,?,0.017,0.001,0.03125,0,31.25,0,6363,1156875,129877,?,?,?,?
raw_data_agent,7,8,weka.classifiers.functions.LinearRegression,'-S 0 -R 1.0E-8 -num-decimal-places 4',-3364580862046573747,20260322.1817,10599,1177,0.583449,3.029421,88.089372,97.621091,0.217552,0,0,?,?,?,?,?,?,0.016,0,0.015625,0,15.625,0,6363,1156875,129877,?,?,?,?
raw_data_agent,7,9,weka.classifiers.functions.LinearRegression,'-S 0 -R 1.0E-8 -num-decimal-places 4',-3364580862046573747,20260322.1817,10599,1177,0.522781,1.060628,83.608468,84.205037,0.54601,0,0,?,?,?,?,?,?,0.019,0,0.015625,0,15.625,0,6363,1156875,129877,?,?,?,?
raw_data_agent,7,10,weka.classifiers.functions.LinearRegression,'-S 0 -R 1.0E-8 -num-decimal-places 4',-3364580862046573747,20260322.1817,10599,1177,0.673054,4.201554,88.709252,98.746363,0.159591,0,0,?,?,?,?,?,?,0.017,0,0.015625,0.015625,15.625,15.625,6371,1156875,129877,?,?,?,?
raw_data_agent,8,1,weka.classifiers.functions.LinearRegression,'-S 0 -R 1.0E-8 -num-decimal-places 4',-3364580862046573747,20260322.1817,10598,1178,0.59878,3.114284,86.140859,97.814644,0.210754,0,0,?,?,?,?,?,?,0.017,0,0.015625,0,15.625,0,6363,1156766,129986,?,?,?,?
raw_data_agent,8,2,weka.classifiers.functions.LinearRegression,'-S 0 -R 1.0E-8 -num-decimal-places 4',-3364580862046573747,20260322.1817,10598,1178,0.624065,3.107105,87.357621,97.576513,0.221047,0,0,?,?,?,?,?,?,0.018,0,0.015625,0,15.625,0,6363,1156766,129986,?,?,?,?
raw_data_agent,8,3,weka.classifiers.functions.LinearRegression,'-S 0 -R 1.0E-8 -num-decimal-places 4',-3364580862046573747,20260322.1817,10598,1178,0.892036,5.971784,86.279298,98.888887,0.149984,0,0,?,?,?,?,?,?,0.014,0,0.015625,0,15.625,0,6379,1156766,129986,?,?,?,?
raw_data_agent,8,4,weka.classifiers.functions.LinearRegression,'-S 0 -R 1.0E-8 -num-decimal-places 4',-3364580862046573747,20260322.1817,10598,1178,0.61307,3.095809,89.930694,97.966296,0.19618,0,0,?,?,?,?,?,?,0.019,0,0.015625,0,15.625,0,6363,1156766,129986,?,?,?,?
raw_data_agent,8,5,weka.classifiers.functions.LinearRegression,'-S 0 -R 1.0E-8 -num-decimal-places 4',-3364580862046573747,20260322.1817,10598,1178,0.674243,4.205577,85.45937,98.18826,0.189661,0,0,?,?,?,?,?,?,0.017,0.002,0.03125,0,31.25,0,6363,1156766,129986,?,?,?,?
raw_data_agent,8,6,weka.classifiers.functions.LinearRegression,'-S 0 -R 1.0E-8 -num-decimal-places 4',-3364580862046573747,20260322.1817,10598,1178,0.673577,4.212339,85.516361,98.238163,0.186334,0,0,?,?,?,?,?,?,0.014,0,0.015625,0,15.625,0,6395,1156766,129986,?,?,?,?
raw_data_agent,8,7,weka.classifiers.functions.LinearRegression,'-S 0 -R 1.0E-8 -num-decimal-places 4',-3364580862046573747,20260322.1817,10599,1177,0.527858,0.933078,81.120376,75.359493,0.657332,0,0,?,?,?,?,?,?,0.019,0.001,0.015625,0,15.625,0,6363,1156875,129877,?,?,?,?
raw_data_agent,8,8,weka.classifiers.functions.LinearRegression,'-S 0 -R 1.0E-8 -num-decimal-places 4',-3364580862046573747,20260322.1817,10599,1177,0.703506,4.304822,90.617543,98.837359,0.15311,0,0,?,?,?,?,?,?,0.015,0,0.015625,0,15.625,0,6387,1156875,129877,?,?,?,?
raw_data_agent,8,9,weka.classifiers.functions.LinearRegression,'-S 0 -R 1.0E-8 -num-decimal-places 4',-3364580862046573747,20260322.1817,10599,1177,0.59584,1.411291,85.348002,89.179915,0.456447,0,0,?,?,?,?,?,?,0.016,0,0.015625,0,15.625,0,6363,1156875,129877,?,?,?,?
raw_data_agent,8,10,weka.classifiers.functions.LinearRegression,'-S 0 -R 1.0E-8 -num-decimal-places 4',-3364580862046573747,20260322.1817,10599,1177,0.575756,1.340987,83.166955,84.323425,0.538259,0,0,?,?,?,?,?,?,0.018,0.001,0.03125,0,31.25,0,6363,1156875,129877,?,?,?,?
raw_data_agent,9,1,weka.classifiers.functions.LinearRegression,'-S 0 -R 1.0E-8 -num-decimal-places 4',-3364580862046573747,20260322.1817,10598,1178,0.885652,5.970352,90.087369,99.267473,0.120837,0,0,?,?,?,?,?,?,0.013,0.001,0.015625,0,15.625,0,6395,1156766,129986,?,?,?,?
raw_data_agent,9,2,weka.classifiers.functions.LinearRegression,'-S 0 -R 1.0E-8 -num-decimal-places 4',-3364580862046573747,20260322.1817,10598,1178,0.540343,1.120381,85.754074,86.852106,0.505955,0,0,?,?,?,?,?,?,0.021,0.002,0.015625,0,15.625,0,6363,1156766,129986,?,?,?,?
raw_data_agent,9,3,weka.classifiers.functions.LinearRegression,'-S 0 -R 1.0E-8 -num-decimal-places 4',-3364580862046573747,20260322.1817,10598,1178,0.671295,4.23198,85.63344,98.328723,0.182995,0,0,?,?,?,?,?,?,0.019,0,0.015625,0,15.625,0,6363,1156766,129986,?,?,?,?
raw_data_agent,9,4,weka.classifiers.functions.LinearRegression,'-S 0 -R 1.0E-8 -num-decimal-places 4',-3364580862046573747,20260322.1817,10598,1178,0.530079,1.01996,82.315342,81.066015,0.589697,0,0,?,?,?,?,?,?,0.018,0.001,0.03125,0,31.25,0,6363,1156766,129986,?,?,?,?
raw_data_agent,9,5,weka.classifiers.functions.LinearRegression,'-S 0 -R 1.0E-8 -num-decimal-places 4',-3364580862046573747,20260322.1817,10598,1178,0.709545,4.292392,86.428707,98.32579,0.182529,0,0,?,?,?,?,?,?,0.018,0,0.015625,0,15.625,0,6363,1156766,129986,?,?,?,?
raw_data_agent,9,6,weka.classifiers.functions.LinearRegression,'-S 0 -R 1.0E-8 -num-decimal-places 4',-3364580862046573747,20260322.1817,10598,1178,0.541805,1.127128,82.677161,82.72836,0.561905,0,0,?,?,?,?,?,?,0.016,0.001,0.015625,0,15.625,0,6363,1156766,129986,?,?,?,?
raw_data_agent,9,7,weka.classifiers.functions.LinearRegression,'-S 0 -R 1.0E-8 -num-decimal-places 4',-3364580862046573747,20260322.1817,10599,1177,0.696872,4.247913,88.434243,98.450015,0.175723,0,0,?,?,?,?,?,?,0.017,0,0.03125,0,31.25,0,6363,1156875,129877,?,?,?,?
raw_data_agent,9,8,weka.classifiers.functions.LinearRegression,'-S 0 -R 1.0E-8 -num-decimal-places 4',-3364580862046573747,20260322.1817,10599,1177,0.546935,1.188472,84.93903,86.216507,0.507921,0,0,?,?,?,?,?,?,0.02,0.001,0.015625,0,15.625,0,6363,1156875,129877,?,?,?,?
raw_data_agent,9,9,weka.classifiers.functions.LinearRegression,'-S 0 -R 1.0E-8 -num-decimal-places 4',-3364580862046573747,20260322.1817,10599,1177,0.732959,4.330859,87.60351,98.205687,0.189721,0,0,?,?,?,?,?,?,0.017,0,0.015625,0,15.625,0,6379,1156875,129877,?,?,?,?
raw_data_agent,9,10,weka.classifiers.functions.LinearRegression,'-S 0 -R 1.0E-8 -num-decimal-places 4',-3364580862046573747,20260322.1817,10599,1177,0.61741,3.08516,84.529235,96.735818,0.253837,0,0,?,?,?,?,?,?,0.019,0,0.015625,0,15.625,0,6363,1156875,129877,?,?,?,?
raw_data_agent,10,1,weka.classifiers.functions.LinearRegression,'-S 0 -R 1.0E-8 -num-decimal-places 4',-3364580862046573747,20260322.1817,10598,1178,0.701329,4.275939,87.737861,98.43206,0.177402,0,0,?,?,?,?,?,?,0.017,0.001,0.03125,0,31.25,0,6363,1156766,129986,?,?,?,?
raw_data_agent,10,2,weka.classifiers.functions.LinearRegression,'-S 0 -R 1.0E-8 -num-decimal-places 4',-3364580862046573747,20260322.1817,10598,1178,0.815186,5.153739,87.167031,98.509137,0.17237,0,0,?,?,?,?,?,?,0.019,0.001,0,0,0,0,6363,1156766,129986,?,?,?,?
raw_data_agent,10,3,weka.classifiers.functions.LinearRegression,'-S 0 -R 1.0E-8 -num-decimal-places 4',-3364580862046573747,20260322.1817,10598,1178,0.611542,3.135474,82.66022,97.199742,0.235241,0,0,?,?,?,?,?,?,0.022,0.001,0,0,0,0,6363,1156766,129986,?,?,?,?
raw_data_agent,10,4,weka.classifiers.functions.LinearRegression,'-S 0 -R 1.0E-8 -num-decimal-places 4',-3364580862046573747,20260322.1817,10598,1178,0.747097,4.303848,85.261539,97.861529,0.206902,0,0,?,?,?,?,?,?,0.018,0,0.015625,0,15.625,0,6363,1156766,129986,?,?,?,?
raw_data_agent,10,5,weka.classifiers.functions.LinearRegression,'-S 0 -R 1.0E-8 -num-decimal-places 4',-3364580862046573747,20260322.1817,10598,1178,0.684489,4.27412,85.548081,98.369733,0.179802,0,0,?,?,?,?,?,?,0.017,0.002,0.03125,0,31.25,0,6363,1156766,129986,?,?,?,?
raw_data_agent,10,6,weka.classifiers.functions.LinearRegression,'-S 0 -R 1.0E-8 -num-decimal-places 4',-3364580862046573747,20260322.1817,10598,1178,0.544071,1.109656,86.754268,89.064847,0.487368,0,0,?,?,?,?,?,?,0.018,0,0.015625,0,15.625,0,6371,1156766,129986,?,?,?,?
raw_data_agent,10,7,weka.classifiers.functions.LinearRegression,'-S 0 -R 1.0E-8 -num-decimal-places 4',-3364580862046573747,20260322.1817,10599,1177,0.752666,5.124677,87.101075,98.770668,0.15685,0,0,?,?,?,?,?,?,0.019,0,0.015625,0,15.625,0,6371,1156875,129877,?,?,?,?
raw_data_agent,10,8,weka.classifiers.functions.LinearRegression,'-S 0 -R 1.0E-8 -num-decimal-places 4',-3364580862046573747,20260322.1817,10599,1177,0.488185,0.939854,85.183382,83.245123,0.55978,0,0,?,?,?,?,?,?,0.018,0,0.03125,0,31.25,0,6363,1156875,129877,?,?,?,?
raw_data_agent,10,9,weka.classifiers.functions.LinearRegression,'-S 0 -R 1.0E-8 -num-decimal-places 4',-3364580862046573747,20260322.1817,10599,1177,0.541443,1.221843,85.671265,83.308509,0.55363,0,0,?,?,?,?,?,?,0.018,0,0.015625,0,15.625,0,6363,1156875,129877,?,?,?,?
raw_data_agent,10,10,weka.classifiers.functions.LinearRegression,'-S 0 -R 1.0E-8 -num-decimal-places 4',-3364580862046573747,20260322.1817,10599,1177,0.587019,1.335835,87.444142,89.892948,0.445894,0,0,?,?,?,?,?,?,0.02,0,0.015625,0,15.625,0,6363,1156875,129877,?,?,?,?
raw_data_keyboard,1,1,weka.classifiers.functions.LinearRegression,'-S 0 -R 1.0E-8 -num-decimal-places 4',-3364580862046573747,20260322.1817,12566,1397,1.62895,5.250678,98.69523,100.610858,0.010721,0,0,?,?,?,?,?,?,0.02,0.001,0.015625,0,15.625,0,6388,1371281,153860,?,?,?,?
raw_data_keyboard,1,2,weka.classifiers.functions.LinearRegression,'-S 0 -R 1.0E-8 -num-decimal-places 4',-3364580862046573747,20260322.1817,12566,1397,1.499878,3.530731,98.663286,99.117531,0.13454,0,0,?,?,?,?,?,?,0.02,0.001,0.015625,0,15.625,0,6388,1371281,153860,?,?,?,?
raw_data_keyboard,1,3,weka.classifiers.functions.LinearRegression,'-S 0 -R 1.0E-8 -num-decimal-places 4',-3364580862046573747,20260322.1817,12566,1397,1.780302,6.901951,98.330118,99.601052,0.089228,0,0,?,?,?,?,?,?,0.019,0.001,0.03125,0,31.25,0,6404,1371281,153860,?,?,?,?
raw_data_keyboard,1,4,weka.classifiers.functions.LinearRegression,'-S 0 -R 1.0E-8 -num-decimal-places 4',-3364580862046573747,20260322.1817,12567,1396,1.49204,2.522266,99.314579,99.114604,0.15336,0,0,?,?,?,?,?,?,0.02,0.001,0.03125,0,31.25,0,6388,1371390,153751,?,?,?,?
raw_data_keyboard,1,5,weka.classifiers.functions.LinearRegression,'-S 0 -R 1.0E-8 -num-decimal-places 4',-3364580862046573747,20260322.1817,12567,1396,1.764986,5.88974,98.728157,99.369939,0.114621,0,0,?,?,?,?,?,?,0.024,0.001,0.03125,0,31.25,0,6396,1371390,153751,?,?,?,?
raw_data_keyboard,1,6,weka.classifiers.functions.LinearRegression,'-S 0 -R 1.0E-8 -num-decimal-places 4',-3364580862046573747,20260322.1817,12567,1396,1.481009,4.329654,97.2488,98.883072,0.148823,0,0,?,?,?,?,?,?,0.021,0.001,0.015625,0,15.625,0,6396,1371390,153751,?,?,?,?
raw_data_keyboard,1,7,weka.classifiers.functions.LinearRegression,'-S 0 -R 1.0E-8 -num-decimal-places 4',-3364580862046573747,20260322.1817,12567,1396,1.653817,4.473003,99.647239,99.293713,0.116796,0,0,?,?,?,?,?,?,0.02,0.001,0.015625,0,15.625,0,6388,1371390,153751,?,?,?,?
raw_data_keyboard,1,8,weka.classifiers.functions.LinearRegression,'-S 0 -R 1.0E-8 -num-decimal-places 4',-3364580862046573747,20260322.1817,12567,1396,1.639137,5.22571,99.211397,99.677922,0.084375,0,0,?,?,?,?,?,?,0.016,0.002,0.015625,0,15.625,0,6396,1371390,153751,?,?,?,?
raw_data_keyboard,1,9,weka.classifiers.functions.LinearRegression,'-S 0 -R 1.0E-8 -num-decimal-places 4',-3364580862046573747,20260322.1817,12567,1396,1.606796,5.187109,98.313472,99.49926,0.100772,0,0,?,?,?,?,?,?,0.019,0.001,0.015625,0,15.625,0,6396,1371390,153751,?,?,?,?
raw_data_keyboard,1,10,weka.classifiers.functions.LinearRegression,'-S 0 -R 1.0E-8 -num-decimal-places 4',-3364580862046573747,20260322.1817,12567,1396,1.735139,6.405601,98.387837,99.743888,0.072862,0,0,?,?,?,?,?,?,0.018,0,0,0,0,0,6396,1371390,153751,?,?,?,?
raw_data_keyboard,2,1,weka.classifiers.functions.LinearRegression,'-S 0 -R 1.0E-8 -num-decimal-places 4',-3364580862046573747,20260322.1817,12566,1397,1.519778,4.465762,98.211809,99.831212,0.080001,0,0,?,?,?,?,?,?,0.02,0,0,0,0,0,6388,1371281,153860,?,?,?,?
raw_data_keyboard,2,2,weka.classifiers.functions.LinearRegression,'-S 0 -R 1.0E-8 -num-decimal-places 4',-3364580862046573747,20260322.1817,12566,1397,1.4614,2.416004,99.878819,99.549188,0.135801,0,0,?,?,?,?,?,?,0.022,0.001,0.015625,0,15.625,0,6388,1371281,153860,?,?,?,?
raw_data_keyboard,2,3,weka.classifiers.functions.LinearRegression,'-S 0 -R 1.0E-8 -num-decimal-places 4',-3364580862046573747,20260322.1817,12566,1397,1.734427,6.3773,98.394078,99.636625,0.085026,0,0,?,?,?,?,?,?,0.023,0,0.03125,0,31.25,0,6396,1371281,153860,?,?,?,?
raw_data_keyboard,2,4,weka.classifiers.functions.LinearRegression,'-S 0 -R 1.0E-8 -num-decimal-places 4',-3364580862046573747,20260322.1817,12567,1396,1.510258,3.572135,99.024191,99.003898,0.14218,0,0,?,?,?,?,?,?,0.019,0,0.03125,0,31.25,0,6396,1371390,153751,?,?,?,?
raw_data_keyboard,2,5,weka.classifiers.functions.LinearRegression,'-S 0 -R 1.0E-8 -num-decimal-places 4',-3364580862046573747,20260322.1817,12567,1396,1.649292,5.794462,97.563604,99.314949,0.120007,0,0,?,?,?,?,?,?,0.02,0.001,0.015625,0,15.625,0,6396,1371390,153751,?,?,?,?
raw_data_keyboard,2,6,weka.classifiers.functions.LinearRegression,'-S 0 -R 1.0E-8 -num-decimal-places 4',-3364580862046573747,20260322.1817,12567,1396,1.561435,3.647396,99.365327,99.155272,0.132831,0,0,?,?,?,?,?,?,0.023,0.001,0.015625,0,15.625,0,6396,1371390,153751,?,?,?,?
raw_data_keyboard,2,7,weka.classifiers.functions.LinearRegression,'-S 0 -R 1.0E-8 -num-decimal-places 4',-3364580862046573747,20260322.1817,12567,1396,1.620143,4.534577,98.754875,99.964232,0.065282,0,0,?,?,?,?,?,?,0.023,0,0.015625,0,15.625,0,6388,1371390,153751,?,?,?,?
raw_data_keyboard,2,8,weka.classifiers.functions.LinearRegression,'-S 0 -R 1.0E-8 -num-decimal-places 4',-3364580862046573747,20260322.1817,12567,1396,1.744859,5.844498,98.231663,99.405109,0.110318,0,0,?,?,?,?,?,?,0.018,0.001,0.015625,0,15.625,0,6396,1371390,153751,?,?,?,?
raw_data_keyboard,2,9,weka.classifiers.functions.LinearRegression,'-S 0 -R 1.0E-8 -num-decimal-places 4',-3364580862046573747,20260322.1817,12567,1396,1.757997,5.876295,98.041723,99.243745,0.128367,0,0,?,?,?,?,?,?,0.022,0.001,0.015625,0,15.625,0,6396,1371390,153751,?,?,?,?
raw_data_keyboard,2,10,weka.classifiers.functions.LinearRegression,'-S 0 -R 1.0E-8 -num-decimal-places 4',-3364580862046573747,20260322.1817,12567,1396,1.71673,6.86191,99.095001,99.833296,0.059219,0,0,?,?,?,?,?,?,0.023,0.001,0.03125,0,31.25,0,6372,1371390,153751,?,?,?,?
raw_data_keyboard,3,1,weka.classifiers.functions.LinearRegression,'-S 0 -R 1.0E-8 -num-decimal-places 4',-3364580862046573747,20260322.1817,12566,1397,1.623397,5.188796,101.247973,99.864236,0.0662,0,0,?,?,?,?,?,?,0.021,0,0.03125,0,31.25,0,6388,1371281,153860,?,?,?,?
raw_data_keyboard,3,2,weka.classifiers.functions.LinearRegression,'-S 0 -R 1.0E-8 -num-decimal-places 4',-3364580862046573747,20260322.1817,12566,1397,1.683625,5.254745,99.484783,99.602524,0.090956,0,0,?,?,?,?,?,?,0.019,0.001,0.015625,0,15.625,0,6396,1371281,153860,?,?,?,?
raw_data_keyboard,3,3,weka.classifiers.functions.LinearRegression,'-S 0 -R 1.0E-8 -num-decimal-places 4',-3364580862046573747,20260322.1817,12566,1397,1.670593,4.628778,98.274103,99.884015,0.07151,0,0,?,?,?,?,?,?,0.024,0.001,0.03125,0,31.25,0,6388,1371281,153860,?,?,?,?
raw_data_keyboard,3,4,weka.classifiers.functions.LinearRegression,'-S 0 -R 1.0E-8 -num-decimal-places 4',-3364580862046573747,20260322.1817,12567,1396,1.658941,5.826648,97.421054,99.728245,0.075554,0,0,?,?,?,?,?,?,0.021,0.001,0.015625,0,15.625,0,6396,1371390,153751,?,?,?,?
raw_data_keyboard,3,5,weka.classifiers.functions.LinearRegression,'-S 0 -R 1.0E-8 -num-decimal-places 4',-3364580862046573747,20260322.1817,12567,1396,1.564251,3.613164,98.976531,98.929185,0.149419,0,0,?,?,?,?,?,?,0.021,0,0.015625,0,15.625,0,6388,1371390,153751,?,?,?,?
raw_data_keyboard,3,6,weka.classifiers.functions.LinearRegression,'-S 0 -R 1.0E-8 -num-decimal-places 4',-3364580862046573747,20260322.1817,12567,1396,1.867929,7.416674,97.758755,99.661548,0.081936,0,0,?,?,?,?,?,?,0.022,0.001,0.015625,0,15.625,0,6372,1371390,153751,?,?,?,?
raw_data_keyboard,3,7,weka.classifiers.functions.LinearRegression,'-S 0 -R 1.0E-8 -num-decimal-places 4',-3364580862046573747,20260322.1817,12567,1396,1.509333,3.608807,96.471181,98.616183,0.166168,0,0,?,?,?,?,?,?,0.019,0.001,0.015625,0,15.625,0,6396,1371390,153751,?,?,?,?
raw_data_keyboard,3,8,weka.classifiers.functions.LinearRegression,'-S 0 -R 1.0E-8 -num-decimal-places 4',-3364580862046573747,20260322.1817,12567,1396,1.427952,3.413234,99.443609,99.346277,0.121725,0,0,?,?,?,?,?,?,0.019,0.001,0.015625,0,15.625,0,6388,1371390,153751,?,?,?,?
raw_data_keyboard,3,9,weka.classifiers.functions.LinearRegression,'-S 0 -R 1.0E-8 -num-decimal-places 4',-3364580862046573747,20260322.1817,12567,1396,1.537494,4.362364,99.308215,99.418454,0.109958,0,0,?,?,?,?,?,?,0.017,0.001,0.015625,0,15.625,0,6396,1371390,153751,?,?,?,?
raw_data_keyboard,3,10,weka.classifiers.functions.LinearRegression,'-S 0 -R 1.0E-8 -num-decimal-places 4',-3364580862046573747,20260322.1817,12567,1396,1.741344,6.382056,98.726212,99.307374,0.124278,0,0,?,?,?,?,?,?,0.025,0,0.015625,0,15.625,0,6396,1371390,153751,?,?,?,?
raw_data_keyboard,4,1,weka.classifiers.functions.LinearRegression,'-S 0 -R 1.0E-8 -num-decimal-places 4',-3364580862046573747,20260322.1817,12566,1397,1.627255,4.52865,98.503565,99.201281,0.127073,0,0,?,?,?,?,?,?,0.025,0.001,0.03125,0,31.25,0,6396,1371281,153860,?,?,?,?
raw_data_keyboard,4,2,weka.classifiers.functions.LinearRegression,'-S 0 -R 1.0E-8 -num-decimal-places 4',-3364580862046573747,20260322.1817,12566,1397,1.544132,4.443703,97.66331,99.361257,0.11447,0,0,?,?,?,?,?,?,0.022,0.001,0.015625,0,15.625,0,6388,1371281,153860,?,?,?,?
raw_data_keyboard,4,3,weka.classifiers.functions.LinearRegression,'-S 0 -R 1.0E-8 -num-decimal-places 4',-3364580862046573747,20260322.1817,12566,1397,1.673993,5.783848,100.328681,99.696787,0.079685,0,0,?,?,?,?,?,?,0.019,0.001,0.015625,0,15.625,0,6396,1371281,153860,?,?,?,?
raw_data_keyboard,4,4,weka.classifiers.functions.LinearRegression,'-S 0 -R 1.0E-8 -num-decimal-places 4',-3364580862046573747,20260322.1817,12567,1396,1.363257,2.234781,97.68677,97.763611,0.213513,0,0,?,?,?,?,?,?,0.024,0,0.015625,0,15.625,0,6396,1371390,153751,?,?,?,?
raw_data_keyboard,4,5,weka.classifiers.functions.LinearRegression,'-S 0 -R 1.0E-8 -num-decimal-places 4',-3364580862046573747,20260322.1817,12567,1396,1.534054,3.617232,98.534579,99.157329,0.130986,0,0,?,?,?,?,?,?,0.022,0,0.015625,0,15.625,0,6396,1371390,153751,?,?,?,?
raw_data_keyboard,4,6,weka.classifiers.functions.LinearRegression,'-S 0 -R 1.0E-8 -num-decimal-places 4',-3364580862046573747,20260322.1817,12567,1396,1.5572,5.148652,98.066163,99.198506,0.127698,0,0,?,?,?,?,?,?,0.024,0,0.015625,0,15.625,0,6396,1371390,153751,?,?,?,?
raw_data_keyboard,4,7,weka.classifiers.functions.LinearRegression,'-S 0 -R 1.0E-8 -num-decimal-places 4',-3364580862046573747,20260322.1817,12567,1396,1.650953,4.531629,100.748825,100.193062,0.051909,0,0,?,?,?,?,?,?,0.022,0.001,0.03125,0,31.25,0,6388,1371390,153751,?,?,?,?
raw_data_keyboard,4,8,weka.classifiers.functions.LinearRegression,'-S 0 -R 1.0E-8 -num-decimal-places 4',-3364580862046573747,20260322.1817,12567,1396,1.785602,6.426226,97.692726,99.574879,0.092696,0,0,?,?,?,?,?,?,0.026,0.001,0.015625,0,15.625,0,6388,1371390,153751,?,?,?,?
raw_data_keyboard,4,9,weka.classifiers.functions.LinearRegression,'-S 0 -R 1.0E-8 -num-decimal-places 4',-3364580862046573747,20260322.1817,12567,1396,1.604818,5.15823,99.268549,99.392671,0.108504,0,0,?,?,?,?,?,?,0.026,0.001,0.015625,0,15.625,0,6388,1371390,153751,?,?,?,?
raw_data_keyboard,4,10,weka.classifiers.functions.LinearRegression,'-S 0 -R 1.0E-8 -num-decimal-places 4',-3364580862046573747,20260322.1817,12567,1396,1.946524,7.45492,98.389919,99.718646,0.075002,0,0,?,?,?,?,?,?,0.022,0.002,0.015625,0,15.625,0,6380,1371390,153751,?,?,?,?
raw_data_keyboard,5,1,weka.classifiers.functions.LinearRegression,'-S 0 -R 1.0E-8 -num-decimal-places 4',-3364580862046573747,20260322.1817,12566,1397,1.733259,6.400742,99.207998,99.494992,0.101843,0,0,?,?,?,?,?,?,0.021,0.001,0.015625,0,15.625,0,6396,1371281,153860,?,?,?,?
raw_data_keyboard,5,2,weka.classifiers.functions.LinearRegression,'-S 0 -R 1.0E-8 -num-decimal-places 4',-3364580862046573747,20260322.1817,12566,1397,1.528869,4.39239,97.156017,99.066305,0.136681,0,0,?,?,?,?,?,?,0.023,0.001,0.03125,0,31.25,0,6396,1371281,153860,?,?,?,?
raw_data_keyboard,5,3,weka.classifiers.functions.LinearRegression,'-S 0 -R 1.0E-8 -num-decimal-places 4',-3364580862046573747,20260322.1817,12566,1397,1.665613,5.188776,97.671694,99.377534,0.112254,0,0,?,?,?,?,?,?,0.021,0,0.015625,0,15.625,0,6396,1371281,153860,?,?,?,?
raw_data_keyboard,5,4,weka.classifiers.functions.LinearRegression,'-S 0 -R 1.0E-8 -num-decimal-places 4',-3364580862046573747,20260322.1817,12567,1396,1.534058,4.416709,98.374822,99.46242,0.106192,0,0,?,?,?,?,?,?,0.025,0,0.015625,0,15.625,0,6396,1371390,153751,?,?,?,?
raw_data_keyboard,5,5,weka.classifiers.functions.LinearRegression,'-S 0 -R 1.0E-8 -num-decimal-places 4',-3364580862046573747,20260322.1817,12567,1396,1.53663,3.637959,98.375346,98.883113,0.149026,0,0,?,?,?,?,?,?,0.021,0,0.015625,0.015625,15.625,15.625,6396,1371390,153751,?,?,?,?
raw_data_keyboard,5,6,weka.classifiers.functions.LinearRegression,'-S 0 -R 1.0E-8 -num-decimal-places 4',-3364580862046573747,20260322.1817,12567,1396,1.519976,4.382552,98.798555,99.129263,0.131566,0,0,?,?,?,?,?,?,0.025,0,0.03125,0,31.25,0,6388,1371390,153751,?,?,?,?
raw_data_keyboard,5,7,weka.classifiers.functions.LinearRegression,'-S 0 -R 1.0E-8 -num-decimal-places 4',-3364580862046573747,20260322.1817,12567,1396,1.827903,6.467052,98.227916,99.601428,0.088328,0,0,?,?,?,?,?,?,0.026,0,0.015625,0,15.625,0,6396,1371390,153751,?,?,?,?
raw_data_keyboard,5,8,weka.classifiers.functions.LinearRegression,'-S 0 -R 1.0E-8 -num-decimal-places 4',-3364580862046573747,20260322.1817,12567,1396,1.686792,5.234344,100.243963,99.771128,0.075371,0,0,?,?,?,?,?,?,0.022,0.001,0.03125,0,31.25,0,6396,1371390,153751,?,?,?,?
raw_data_keyboard,5,9,weka.classifiers.functions.LinearRegression,'-S 0 -R 1.0E-8 -num-decimal-places 4',-3364580862046573747,20260322.1817,12567,1396,1.555539,4.475616,100.10422,100.714399,0.014337,0,0,?,?,?,?,?,?,0.024,0.001,0.03125,0,31.25,0,6380,1371390,153751,?,?,?,?
raw_data_keyboard,5,10,weka.classifiers.functions.LinearRegression,'-S 0 -R 1.0E-8 -num-decimal-places 4',-3364580862046573747,20260322.1817,12567,1396,1.688983,5.822006,98.162577,99.320503,0.119803,0,0,?,?,?,?,?,?,0.022,0.001,0.015625,0,15.625,0,6388,1371390,153751,?,?,?,?
raw_data_keyboard,6,1,weka.classifiers.functions.LinearRegression,'-S 0 -R 1.0E-8 -num-decimal-places 4',-3364580862046573747,20260322.1817,12566,1397,1.47087,4.355836,99.826616,100.21036,0.052048,0,0,?,?,?,?,?,?,0.026,0.001,0.015625,0,15.625,0,6388,1371281,153860,?,?,?,?
raw_data_keyboard,6,2,weka.classifiers.functions.LinearRegression,'-S 0 -R 1.0E-8 -num-decimal-places 4',-3364580862046573747,20260322.1817,12566,1397,1.454292,2.438295,99.92467,99.411567,0.144021,0,0,?,?,?,?,?,?,0.023,0.001,0.03125,0,31.25,0,6388,1371281,153860,?,?,?,?
raw_data_keyboard,6,3,weka.classifiers.functions.LinearRegression,'-S 0 -R 1.0E-8 -num-decimal-places 4',-3364580862046573747,20260322.1817,12566,1397,1.693033,5.808192,99.946834,99.364695,0.117188,0,0,?,?,?,?,?,?,0.026,0,0.015625,0,15.625,0,6396,1371281,153860,?,?,?,?
raw_data_keyboard,6,4,weka.classifiers.functions.LinearRegression,'-S 0 -R 1.0E-8 -num-decimal-places 4',-3364580862046573747,20260322.1817,12567,1396,1.737114,5.877948,98.689408,99.76136,0.074585,0,0,?,?,?,?,?,?,0.022,0.001,0,0,0,0,6388,1371390,153751,?,?,?,?
raw_data_keyboard,6,5,weka.classifiers.functions.LinearRegression,'-S 0 -R 1.0E-8 -num-decimal-places 4',-3364580862046573747,20260322.1817,12567,1396,1.651741,5.794738,95.634304,99.401062,0.112083,0,0,?,?,?,?,?,?,0.021,0.001,0.015625,0,15.625,0,6388,1371390,153751,?,?,?,?
raw_data_keyboard,6,6,weka.classifiers.functions.LinearRegression,'-S 0 -R 1.0E-8 -num-decimal-places 4',-3364580862046573747,20260322.1817,12567,1396,1.682914,5.831862,99.427901,99.786935,0.071218,0,0,?,?,?,?,?,?,0.022,0.001,0.015625,0,15.625,0,6388,1371390,153751,?,?,?,?
raw_data_keyboard,6,7,weka.classifiers.functions.LinearRegression,'-S 0 -R 1.0E-8 -num-decimal-places 4',-3364580862046573747,20260322.1817,12567,1396,1.743004,5.885464,98.63905,99.673448,0.081712,0,0,?,?,?,?,?,?,0.02,0.001,0.015625,0,15.625,0,6396,1371390,153751,?,?,?,?
raw_data_keyboard,6,8,weka.classifiers.functions.LinearRegression,'-S 0 -R 1.0E-8 -num-decimal-places 4',-3364580862046573747,20260322.1817,12567,1396,1.611763,5.170465,98.982552,99.291037,0.118295,0,0,?,?,?,?,?,?,0.019,0.001,0.015625,0,15.625,0,6396,1371390,153751,?,?,?,?
raw_data_keyboard,6,9,weka.classifiers.functions.LinearRegression,'-S 0 -R 1.0E-8 -num-decimal-places 4',-3364580862046573747,20260322.1817,12567,1396,1.564164,4.414135,98.58525,99.37008,0.11327,0,0,?,?,?,?,?,?,0.021,0,0.015625,0,15.625,0,6388,1371390,153751,?,?,?,?
raw_data_keyboard,6,10,weka.classifiers.functions.LinearRegression,'-S 0 -R 1.0E-8 -num-decimal-places 4',-3364580862046573747,20260322.1817,12567,1396,1.680456,4.577688,97.647989,99.224972,0.124571,0,0,?,?,?,?,?,?,0.019,0.001,0.015625,0,15.625,0,6396,1371390,153751,?,?,?,?
raw_data_keyboard,7,1,weka.classifiers.functions.LinearRegression,'-S 0 -R 1.0E-8 -num-decimal-places 4',-3364580862046573747,20260322.1817,12566,1397,1.608791,4.512609,98.850365,99.35881,0.113318,0,0,?,?,?,?,?,?,0.021,0.001,0.015625,0,15.625,0,6396,1371281,153860,?,?,?,?
raw_data_keyboard,7,2,weka.classifiers.functions.LinearRegression,'-S 0 -R 1.0E-8 -num-decimal-places 4',-3364580862046573747,20260322.1817,12566,1397,1.770072,6.872207,98.711291,99.527027,0.098636,0,0,?,?,?,?,?,?,0.019,0.001,0,0,0,0,6396,1371281,153860,?,?,?,?
raw_data_keyboard,7,3,weka.classifiers.functions.LinearRegression,'-S 0 -R 1.0E-8 -num-decimal-places 4',-3364580862046573747,20260322.1817,12566,1397,1.525002,3.563516,99.414584,99.056546,0.13723,0,0,?,?,?,?,?,?,0.019,0,0.015625,0,15.625,0,6388,1371281,153860,?,?,?,?
raw_data_keyboard,7,4,weka.classifiers.functions.LinearRegression,'-S 0 -R 1.0E-8 -num-decimal-places 4',-3364580862046573747,20260322.1817,12567,1396,1.949157,7.515264,97.753632,99.646368,0.084551,0,0,?,?,?,?,?,?,0.019,0.001,0.015625,0,15.625,0,6396,1371390,153751,?,?,?,?
raw_data_keyboard,7,5,weka.classifiers.functions.LinearRegression,'-S 0 -R 1.0E-8 -num-decimal-places 4',-3364580862046573747,20260322.1817,12567,1396,1.570653,4.451198,98.525701,99.151833,0.12937,0,0,?,?,?,?,?,?,0.019,0.001,0.015625,0,15.625,0,6396,1371390,153751,?,?,?,?
raw_data_keyboard,7,6,weka.classifiers.functions.LinearRegression,'-S 0 -R 1.0E-8 -num-decimal-places 4',-3364580862046573747,20260322.1817,12567,1396,1.603388,5.174135,98.885856,99.770603,0.075467,0,0,?,?,?,?,?,?,0.023,0.001,0.015625,0,15.625,0,6380,1371390,153751,?,?,?,?
raw_data_keyboard,7,7,weka.classifiers.functions.LinearRegression,'-S 0 -R 1.0E-8 -num-decimal-places 4',-3364580862046573747,20260322.1817,12567,1396,1.701993,5.262127,97.892059,99.356603,0.114594,0,0,?,?,?,?,?,?,0.02,0,0,0,0,0,6396,1371390,153751,?,?,?,?
raw_data_keyboard,7,8,weka.classifiers.functions.LinearRegression,'-S 0 -R 1.0E-8 -num-decimal-places 4',-3364580862046573747,20260322.1817,12567,1396,1.415028,3.420453,98.688608,99.18915,0.131493,0,0,?,?,?,?,?,?,0.022,0,0.015625,0,15.625,0,6396,1371390,153751,?,?,?,?
raw_data_keyboard,7,9,weka.classifiers.functions.LinearRegression,'-S 0 -R 1.0E-8 -num-decimal-places 4',-3364580862046573747,20260322.1817,12567,1396,1.680858,5.250668,99.199807,100.141589,0.046236,0,0,?,?,?,?,?,?,0.021,0.001,0.015625,0,15.625,0,6396,1371390,153751,?,?,?,?
raw_data_keyboard,7,10,weka.classifiers.functions.LinearRegression,'-S 0 -R 1.0E-8 -num-decimal-places 4',-3364580862046573747,20260322.1817,12567,1396,1.451181,3.475099,98.675988,99.118013,0.13492,0,0,?,?,?,?,?,?,0.022,0.001,0.03125,0,31.25,0,6388,1371390,153751,?,?,?,?
raw_data_keyboard,8,1,weka.classifiers.functions.LinearRegression,'-S 0 -R 1.0E-8 -num-decimal-places 4',-3364580862046573747,20260322.1817,12566,1397,1.60527,5.101326,98.533898,99.405463,0.109438,0,0,?,?,?,?,?,?,0.022,0.001,0.03125,0,31.25,0,6388,1371281,153860,?,?,?,?
raw_data_keyboard,8,2,weka.classifiers.functions.LinearRegression,'-S 0 -R 1.0E-8 -num-decimal-places 4',-3364580862046573747,20260322.1817,12566,1397,1.550091,3.654668,99.620006,99.106874,0.134495,0,0,?,?,?,?,?,?,0.023,0.001,0.015625,0,15.625,0,6388,1371281,153860,?,?,?,?
raw_data_keyboard,8,3,weka.classifiers.functions.LinearRegression,'-S 0 -R 1.0E-8 -num-decimal-places 4',-3364580862046573747,20260322.1817,12566,1397,1.815545,6.453211,98.834501,99.710065,0.076595,0,0,?,?,?,?,?,?,0.031,0,0.03125,0,31.25,0,6396,1371281,153860,?,?,?,?
raw_data_keyboard,8,4,weka.classifiers.functions.LinearRegression,'-S 0 -R 1.0E-8 -num-decimal-places 4',-3364580862046573747,20260322.1817,12567,1396,1.718335,6.401946,98.346452,99.745605,0.073261,0,0,?,?,?,?,?,?,0.026,0.001,0.015625,0.015625,15.625,15.625,6396,1371390,153751,?,?,?,?
raw_data_keyboard,8,5,weka.classifiers.functions.LinearRegression,'-S 0 -R 1.0E-8 -num-decimal-places 4',-3364580862046573747,20260322.1817,12567,1396,1.72737,5.84604,97.216165,99.198794,0.13386,0,0,?,?,?,?,?,?,0.024,0,0.03125,0,31.25,0,6396,1371390,153751,?,?,?,?
raw_data_keyboard,8,6,weka.classifiers.functions.LinearRegression,'-S 0 -R 1.0E-8 -num-decimal-places 4',-3364580862046573747,20260322.1817,12567,1396,1.591166,3.673834,99.086183,98.914893,0.147577,0,0,?,?,?,?,?,?,0.025,0.001,0.015625,0,15.625,0,6388,1371390,153751,?,?,?,?
raw_data_keyboard,8,7,weka.classifiers.functions.LinearRegression,'-S 0 -R 1.0E-8 -num-decimal-places 4',-3364580862046573747,20260322.1817,12567,1396,1.558248,5.058946,97.75559,99.192191,0.128528,0,0,?,?,?,?,?,?,0.022,0,0.015625,0,15.625,0,6388,1371390,153751,?,?,?,?
raw_data_keyboard,8,8,weka.classifiers.functions.LinearRegression,'-S 0 -R 1.0E-8 -num-decimal-places 4',-3364580862046573747,20260322.1817,12567,1396,1.563542,4.455997,99.571055,99.341133,0.113604,0,0,?,?,?,?,?,?,0.021,0.001,0.015625,0,15.625,0,6396,1371390,153751,?,?,?,?
raw_data_keyboard,8,9,weka.classifiers.functions.LinearRegression,'-S 0 -R 1.0E-8 -num-decimal-places 4',-3364580862046573747,20260322.1817,12567,1396,1.605882,5.194595,99.700061,100.003394,0.055498,0,0,?,?,?,?,?,?,0.022,0,0.015625,0,15.625,0,6388,1371390,153751,?,?,?,?
raw_data_keyboard,8,10,weka.classifiers.functions.LinearRegression,'-S 0 -R 1.0E-8 -num-decimal-places 4',-3364580862046573747,20260322.1817,12567,1396,1.558162,4.48014,98.927436,99.624776,0.09286,0,0,?,?,?,?,?,?,0.022,0.001,0.03125,0,31.25,0,6380,1371390,153751,?,?,?,?
raw_data_keyboard,9,1,weka.classifiers.functions.LinearRegression,'-S 0 -R 1.0E-8 -num-decimal-places 4',-3364580862046573747,20260322.1817,12566,1397,1.606884,4.529305,98.884631,99.707496,0.087218,0,0,?,?,?,?,?,?,0.02,0.001,0.03125,0,31.25,0,6388,1371281,153860,?,?,?,?
raw_data_keyboard,9,2,weka.classifiers.functions.LinearRegression,'-S 0 -R 1.0E-8 -num-decimal-places 4',-3364580862046573747,20260322.1817,12566,1397,1.409969,3.441725,99.874087,99.167999,0.132633,0,0,?,?,?,?,?,?,0.021,0,0.03125,0,31.25,0,6388,1371281,153860,?,?,?,?
raw_data_keyboard,9,3,weka.classifiers.functions.LinearRegression,'-S 0 -R 1.0E-8 -num-decimal-places 4',-3364580862046573747,20260322.1817,12566,1397,1.683132,5.836819,99.166244,99.866188,0.063162,0,0,?,?,?,?,?,?,0.03,0,0.03125,0,31.25,0,6396,1371281,153860,?,?,?,?
raw_data_keyboard,9,4,weka.classifiers.functions.LinearRegression,'-S 0 -R 1.0E-8 -num-decimal-places 4',-3364580862046573747,20260322.1817,12567,1396,1.482342,3.554005,98.056513,99.00667,0.141875,0,0,?,?,?,?,?,?,0.02,0,0.015625,0,15.625,0,6388,1371390,153751,?,?,?,?
raw_data_keyboard,9,5,weka.classifiers.functions.LinearRegression,'-S 0 -R 1.0E-8 -num-decimal-places 4',-3364580862046573747,20260322.1817,12567,1396,1.728578,6.890978,98.416154,99.91856,0.050664,0,0,?,?,?,?,?,?,0.02,0,0.015625,0,15.625,0,6388,1371390,153751,?,?,?,?
raw_data_keyboard,9,6,weka.classifiers.functions.LinearRegression,'-S 0 -R 1.0E-8 -num-decimal-places 4',-3364580862046573747,20260322.1817,12567,1396,1.777271,6.414563,98.331064,99.393162,0.114849,0,0,?,?,?,?,?,?,0.018,0.002,0.015625,0,15.625,0,6396,1371390,153751,?,?,?,?
raw_data_keyboard,9,7,weka.classifiers.functions.LinearRegression,'-S 0 -R 1.0E-8 -num-decimal-places 4',-3364580862046573747,20260322.1817,12567,1396,1.639332,4.495418,100.534492,99.30622,0.11583,0,0,?,?,?,?,?,?,0.018,0.001,0.015625,0,15.625,0,6388,1371390,153751,?,?,?,?
raw_data_keyboard,9,8,weka.classifiers.functions.LinearRegression,'-S 0 -R 1.0E-8 -num-decimal-places 4',-3364580862046573747,20260322.1817,12567,1396,1.499503,4.364437,98.438995,99.218171,0.125317,0,0,?,?,?,?,?,?,0.02,0,0.03125,0,31.25,0,6388,1371390,153751,?,?,?,?
raw_data_keyboard,9,9,weka.classifiers.functions.LinearRegression,'-S 0 -R 1.0E-8 -num-decimal-places 4',-3364580862046573747,20260322.1817,12567,1396,1.751338,5.312331,98.590407,99.604085,0.090286,0,0,?,?,?,?,?,?,0.019,0,0.015625,0,15.625,0,6388,1371390,153751,?,?,?,?
raw_data_keyboard,9,10,weka.classifiers.functions.LinearRegression,'-S 0 -R 1.0E-8 -num-decimal-places 4',-3364580862046573747,20260322.1817,12567,1396,1.724014,5.224431,97.860772,99.292496,0.120504,0,0,?,?,?,?,?,?,0.018,0.002,0.015625,0,15.625,0,6396,1371390,153751,?,?,?,?
raw_data_keyboard,10,1,weka.classifiers.functions.LinearRegression,'-S 0 -R 1.0E-8 -num-decimal-places 4',-3364580862046573747,20260322.1817,12566,1397,1.485971,3.582508,99.478136,100.196351,0.073201,0,0,?,?,?,?,?,?,0.022,0,0.015625,0,15.625,0,6388,1371281,153860,?,?,?,?
raw_data_keyboard,10,2,weka.classifiers.functions.LinearRegression,'-S 0 -R 1.0E-8 -num-decimal-places 4',-3364580862046573747,20260322.1817,12566,1397,1.618343,5.135189,97.840376,99.304795,0.118291,0,0,?,?,?,?,?,?,0.019,0,0.015625,0,15.625,0,6380,1371281,153860,?,?,?,?
raw_data_keyboard,10,3,weka.classifiers.functions.LinearRegression,'-S 0 -R 1.0E-8 -num-decimal-places 4',-3364580862046573747,20260322.1817,12566,1397,1.613096,4.505369,99.83966,99.41458,0.107933,0,0,?,?,?,?,?,?,0.02,0,0.015625,0,15.625,0,6396,1371281,153860,?,?,?,?
raw_data_keyboard,10,4,weka.classifiers.functions.LinearRegression,'-S 0 -R 1.0E-8 -num-decimal-places 4',-3364580862046573747,20260322.1817,12567,1396,1.626999,4.539918,99.273081,99.383234,0.111226,0,0,?,?,?,?,?,?,0.021,0,0.015625,0,15.625,0,6388,1371390,153751,?,?,?,?
raw_data_keyboard,10,5,weka.classifiers.functions.LinearRegression,'-S 0 -R 1.0E-8 -num-decimal-places 4',-3364580862046573747,20260322.1817,12567,1396,1.633205,5.797797,97.589131,99.913549,0.059041,0,0,?,?,?,?,?,?,0.019,0.001,0.015625,0,15.625,0,6380,1371390,153751,?,?,?,?
raw_data_keyboard,10,6,weka.classifiers.functions.LinearRegression,'-S 0 -R 1.0E-8 -num-decimal-places 4',-3364580862046573747,20260322.1817,12567,1396,1.372247,2.322569,98.721724,99.054924,0.161003,0,0,?,?,?,?,?,?,0.018,0.001,0.015625,0,15.625,0,6388,1371390,153751,?,?,?,?
raw_data_keyboard,10,7,weka.classifiers.functions.LinearRegression,'-S 0 -R 1.0E-8 -num-decimal-places 4',-3364580862046573747,20260322.1817,12567,1396,1.556287,4.417135,98.611935,99.080342,0.136361,0,0,?,?,?,?,?,?,0.017,0,0,0,0,0,6396,1371390,153751,?,?,?,?
raw_data_keyboard,10,8,weka.classifiers.functions.LinearRegression,'-S 0 -R 1.0E-8 -num-decimal-places 4',-3364580862046573747,20260322.1817,12567,1396,1.6603,5.802142,96.953936,99.356861,0.115034,0,0,?,?,?,?,?,?,0.025,0,0.015625,0,15.625,0,6396,1371390,153751,?,?,?,?
raw_data_keyboard,10,9,weka.classifiers.functions.LinearRegression,'-S 0 -R 1.0E-8 -num-decimal-places 4',-3364580862046573747,20260322.1817,12567,1396,2.146376,8.768919,98.411834,99.757214,0.070174,0,0,?,?,?,?,?,?,0.016,0.001,0.015625,0,15.625,0,6404,1371390,153751,?,?,?,?
raw_data_keyboard,10,10,weka.classifiers.functions.LinearRegression,'-S 0 -R 1.0E-8 -num-decimal-places 4',-3364580862046573747,20260322.1817,12567,1396,1.567769,3.656236,100.252159,99.330837,0.120151,0,0,?,?,?,?,?,?,0.019,0.001,0.03125,0,31.25,0,6396,1371390,153751,?,?,?,?
data_agent,1,1,weka.classifiers.trees.M5P,'-M 4.0 -num-decimal-places 4',-6118439039768244417,20260322.1817,10598,1178,0.622942,3.144704,84.343887,96.811656,0.250367,0,0,?,?,?,?,?,?,0.498,0.001,0.484375,0,484.375,0,12658,1920335,215315,?,?,?,1
data_agent,1,2,weka.classifiers.trees.M5P,'-M 4.0 -num-decimal-places 4',-6118439039768244417,20260322.1817,10598,1178,0.637689,3.157782,85.330288,97.091696,0.239608,0,0,?,?,?,?,?,?,0.441,0.001,0.4375,0,437.5,0,12654,1920335,215315,?,?,?,1
data_agent,1,3,weka.classifiers.trees.M5P,'-M 4.0 -num-decimal-places 4',-6118439039768244417,20260322.1817,10598,1178,0.621416,3.081066,89.13138,98.021264,0.205537,0,0,?,?,?,?,?,?,0.498,0,0.4375,0,437.5,0,12654,1920335,215315,?,?,?,1
data_agent,1,4,weka.classifiers.trees.M5P,'-M 4.0 -num-decimal-places 4',-6118439039768244417,20260322.1817,10598,1178,0.392505,1.172871,61.416947,85.517009,0.595869,0,0,?,?,?,?,?,?,0.45,0.001,0.453125,0,453.125,0,57898,1920335,215315,?,?,?,53
data_agent,1,5,weka.classifiers.trees.M5P,'-M 4.0 -num-decimal-places 4',-6118439039768244417,20260322.1817,10598,1178,0.608087,3.132913,83.02742,97.472031,0.228238,0,0,?,?,?,?,?,?,0.513,0,0.484375,0,484.375,0,12654,1920335,215315,?,?,?,1
data_agent,1,6,weka.classifiers.trees.M5P,'-M 4.0 -num-decimal-places 4',-6118439039768244417,20260322.1817,10598,1178,0.570494,3.059138,82.43189,97.196642,0.236684,0,0,?,?,?,?,?,?,0.473,0.001,0.453125,0,453.125,0,12654,1920335,215315,?,?,?,1
data_agent,1,7,weka.classifiers.trees.M5P,'-M 4.0 -num-decimal-places 4',-6118439039768244417,20260322.1817,10599,1177,0.661145,4.25873,80.752809,97.648874,0.21977,0,0,?,?,?,?,?,?,0.581,0.001,0.578125,0,578.125,0,12658,1920516,215134,?,?,?,1
data_agent,1,8,weka.classifiers.trees.M5P,'-M 4.0 -num-decimal-places 4',-6118439039768244417,20260322.1817,10599,1177,0.723017,5.098129,84.717662,98.619564,0.166041,0,0,?,?,?,?,?,?,0.575,0.001,0.53125,0,531.25,0,13616,1920516,215134,?,?,?,2
data_agent,1,9,weka.classifiers.trees.M5P,'-M 4.0 -num-decimal-places 4',-6118439039768244417,20260322.1817,10599,1177,0.56414,1.400376,82.935597,86.621772,0.500083,0,0,?,?,?,?,?,?,0.503,0,0.484375,0,484.375,0,12654,1920516,215134,?,?,?,1
data_agent,1,10,weka.classifiers.trees.M5P,'-M 4.0 -num-decimal-places 4',-6118439039768244417,20260322.1817,10599,1177,0.787324,5.17968,85.710761,98.726858,0.159582,0,0,?,?,?,?,?,?,0.552,0.001,0.515625,0,515.625,0,12650,1920516,215134,?,?,?,1
data_agent,2,1,weka.classifiers.trees.M5P,'-M 4.0 -num-decimal-places 4',-6118439039768244417,20260322.1817,10598,1178,0.61258,3.100621,86.423439,97.520611,0.223484,0,0,?,?,?,?,?,?,0.499,0.001,0.484375,0,484.375,0,12654,1920335,215315,?,?,?,1
data_agent,2,2,weka.classifiers.trees.M5P,'-M 4.0 -num-decimal-places 4',-6118439039768244417,20260322.1817,10598,1178,0.656394,4.223081,82.458781,97.857341,0.206618,0,0,?,?,?,?,?,?,0.531,0.001,0.515625,0,515.625,0,12658,1920335,215315,?,?,?,1
data_agent,2,3,weka.classifiers.trees.M5P,'-M 4.0 -num-decimal-places 4',-6118439039768244417,20260322.1817,10598,1178,0.727109,4.295233,85.770118,98.05076,0.194226,0,0,?,?,?,?,?,?,0.492,0.001,0.46875,0,468.75,0,12658,1920335,215315,?,?,?,1
data_agent,2,4,weka.classifiers.trees.M5P,'-M 4.0 -num-decimal-places 4',-6118439039768244417,20260322.1817,10598,1178,0.534356,1.082696,83.308546,84.231151,0.546678,0,0,?,?,?,?,?,?,0.541,0,0.484375,0,484.375,0,12658,1920335,215315,?,?,?,1
data_agent,2,5,weka.classifiers.trees.M5P,'-M 4.0 -num-decimal-places 4',-6118439039768244417,20260322.1817,10598,1178,0.61488,3.183188,82.77558,97.105171,0.236803,0,0,?,?,?,?,?,?,0.529,0.001,0.515625,0,515.625,0,12654,1920335,215315,?,?,?,1
data_agent,2,6,weka.classifiers.trees.M5P,'-M 4.0 -num-decimal-places 4',-6118439039768244417,20260322.1817,10598,1178,0.624143,3.158959,83.509844,97.261847,0.233613,0,0,?,?,?,?,?,?,0.544,0.001,0.515625,0,515.625,0,12658,1920335,215315,?,?,?,1
data_agent,2,7,weka.classifiers.trees.M5P,'-M 4.0 -num-decimal-places 4',-6118439039768244417,20260322.1817,10599,1177,0.495638,2.982431,71.372184,93.519924,0.359235,0,0,?,?,?,?,?,?,0.509,0.001,0.5,0,500,0,55660,1920516,215134,?,?,?,50
data_agent,2,8,weka.classifiers.trees.M5P,'-M 4.0 -num-decimal-places 4',-6118439039768244417,20260322.1817,10599,1177,0.758515,5.149299,82.239888,98.062727,0.205088,0,0,?,?,?,?,?,?,0.55,0.001,0.546875,0,546.875,0,31676,1920516,215134,?,?,?,22
data_agent,2,9,weka.classifiers.trees.M5P,'-M 4.0 -num-decimal-places 4',-6118439039768244417,20260322.1817,10599,1177,0.551344,1.264814,83.826486,85.137018,0.525882,0,0,?,?,?,?,?,?,0.518,0.001,0.5,0,500,0,12654,1920516,215134,?,?,?,1
data_agent,2,10,weka.classifiers.trees.M5P,'-M 4.0 -num-decimal-places 4',-6118439039768244417,20260322.1817,10599,1177,0.634789,4.185589,83.207926,98.090514,0.194153,0,0,?,?,?,?,?,?,0.541,0.001,0.515625,0,515.625,0,12650,1920516,215134,?,?,?,1
data_agent,3,1,weka.classifiers.trees.M5P,'-M 4.0 -num-decimal-places 4',-6118439039768244417,20260322.1817,10598,1178,0.49181,3.203917,62.4578,97.921098,0.253419,0,0,?,?,?,?,?,?,0.514,0.002,0.515625,0,515.625,0,65556,1920335,215315,?,?,?,62
data_agent,3,2,weka.classifiers.trees.M5P,'-M 4.0 -num-decimal-places 4',-6118439039768244417,20260322.1817,10598,1178,0.518028,1.044979,82.649277,80.137925,0.600665,0,0,?,?,?,?,?,?,0.492,0.001,0.484375,0,484.375,0,12654,1920335,215315,?,?,?,1
data_agent,3,3,weka.classifiers.trees.M5P,'-M 4.0 -num-decimal-places 4',-6118439039768244417,20260322.1817,10598,1178,0.680591,4.256727,83.559904,98.101917,0.193023,0,0,?,?,?,?,?,?,0.496,0.001,0.46875,0,468.75,0,12654,1920335,215315,?,?,?,1
data_agent,3,4,weka.classifiers.trees.M5P,'-M 4.0 -num-decimal-places 4',-6118439039768244417,20260322.1817,10598,1178,0.6531,3.233574,86.717721,98.261893,0.194018,0,0,?,?,?,?,?,?,0.5,0,0.46875,0,468.75,0,12654,1920335,215315,?,?,?,1
data_agent,3,5,weka.classifiers.trees.M5P,'-M 4.0 -num-decimal-places 4',-6118439039768244417,20260322.1817,10598,1178,0.573054,1.353119,87.429828,87.661833,0.484478,0,0,?,?,?,?,?,?,0.477,0.001,0.40625,0,406.25,0,12654,1920335,215315,?,?,?,1
data_agent,3,6,weka.classifiers.trees.M5P,'-M 4.0 -num-decimal-places 4',-6118439039768244417,20260322.1817,10598,1178,0.47543,2.862824,64.040914,88.922342,0.455307,0,0,?,?,?,?,?,?,0.513,0,0.46875,0.015625,468.75,15.625,71518,1920335,215315,?,?,?,69
data_agent,3,7,weka.classifiers.trees.M5P,'-M 4.0 -num-decimal-places 4',-6118439039768244417,20260322.1817,10599,1177,0.485164,3.052084,68.401785,95.61653,0.299747,0,0,?,?,?,?,?,?,0.613,0.001,0.578125,0,578.125,0,63298,1920516,215134,?,?,?,59
data_agent,3,8,weka.classifiers.trees.M5P,'-M 4.0 -num-decimal-places 4',-6118439039768244417,20260322.1817,10599,1177,0.635138,5.066084,70.726782,96.925109,0.247354,0,0,?,?,?,?,?,?,0.555,0.001,0.4375,0,437.5,0,104066,1920516,215134,?,?,?,107
data_agent,3,9,weka.classifiers.trees.M5P,'-M 4.0 -num-decimal-places 4',-6118439039768244417,20260322.1817,10599,1177,0.564165,4.095155,74.716074,95.822922,0.287127,0,0,?,?,?,?,?,?,0.56,0,0.53125,0,531.25,0,130700,1920516,215134,?,?,?,138
data_agent,3,10,weka.classifiers.trees.M5P,'-M 4.0 -num-decimal-places 4',-6118439039768244417,20260322.1817,10599,1177,0.670539,4.225101,86.331099,98.343027,0.178887,0,0,?,?,?,?,?,?,0.57,0.001,0.546875,0,546.875,0,12658,1920516,215134,?,?,?,1
data_agent,4,1,weka.classifiers.trees.M5P,'-M 4.0 -num-decimal-places 4',-6118439039768244417,20260322.1817,10598,1178,0.679879,3.224388,84.755573,96.616524,0.255922,0,0,?,?,?,?,?,?,0.506,0.001,0.5,0,500,0,12654,1920335,215315,?,?,?,1
data_agent,4,2,weka.classifiers.trees.M5P,'-M 4.0 -num-decimal-places 4',-6118439039768244417,20260322.1817,10598,1178,0.505239,1.010884,84.361745,82.099172,0.57895,0,0,?,?,?,?,?,?,0.473,0.001,0.421875,0,421.875,0,12654,1920335,215315,?,?,?,1
data_agent,4,3,weka.classifiers.trees.M5P,'-M 4.0 -num-decimal-places 4',-6118439039768244417,20260322.1817,10598,1178,0.685456,5.656769,71.388608,94.901152,0.344202,0,0,?,?,?,?,?,?,0.588,0.001,0.5625,0,562.5,0,194440,1920335,215315,?,?,?,212
data_agent,4,4,weka.classifiers.trees.M5P,'-M 4.0 -num-decimal-places 4',-6118439039768244417,20260322.1817,10598,1178,0.744631,5.119122,83.342927,97.681388,0.21662,0,0,?,?,?,?,?,?,0.822,0.001,0.71875,0,718.75,0,13620,1920335,215315,?,?,?,2
data_agent,4,5,weka.classifiers.trees.M5P,'-M 4.0 -num-decimal-places 4',-6118439039768244417,20260322.1817,10598,1178,0.480163,3.180258,66.493486,98.026827,0.246064,0,0,?,?,?,?,?,?,0.664,0.001,0.65625,0,656.25,0,45228,1920335,215315,?,?,?,38
data_agent,4,6,weka.classifiers.trees.M5P,'-M 4.0 -num-decimal-places 4',-6118439039768244417,20260322.1817,10598,1178,0.612296,3.109207,82.107984,96.607342,0.258182,0,0,?,?,?,?,?,?,0.801,0.001,0.765625,0,765.625,0,12654,1920335,215315,?,?,?,1
data_agent,4,7,weka.classifiers.trees.M5P,'-M 4.0 -num-decimal-places 4',-6118439039768244417,20260322.1817,10599,1177,0.710252,4.278125,84.214808,98.332708,0.181374,0,0,?,?,?,?,?,?,0.588,0.001,0.5625,0,562.5,0,12658,1920516,215134,?,?,?,1
data_agent,4,8,weka.classifiers.trees.M5P,'-M 4.0 -num-decimal-places 4',-6118439039768244417,20260322.1817,10599,1177,0.578556,3.036593,88.258608,98.630162,0.208083,0,0,?,?,?,?,?,?,0.569,0.001,0.5625,0,562.5,0,13616,1920516,215134,?,?,?,2
data_agent,4,9,weka.classifiers.trees.M5P,'-M 4.0 -num-decimal-places 4',-6118439039768244417,20260322.1817,10599,1177,0.413203,1.387987,65.789244,100.54608,0.499397,0,0,?,?,?,?,?,?,0.51,0.001,0.5,0,500,0,113440,1920516,215134,?,?,?,118
data_agent,4,10,weka.classifiers.trees.M5P,'-M 4.0 -num-decimal-places 4',-6118439039768244417,20260322.1817,10599,1177,0.456108,1.457762,68.023077,99.520394,0.480481,0,0,?,?,?,?,?,?,0.478,0.001,0.4375,0,437.5,0,64718,1920516,215134,?,?,?,61
data_agent,5,1,weka.classifiers.trees.M5P,'-M 4.0 -num-decimal-places 4',-6118439039768244417,20260322.1817,10598,1178,0.677461,3.315383,87.124495,97.299276,0.23112,0,0,?,?,?,?,?,?,0.524,0.002,0.46875,0,468.75,0,12650,1920335,215315,?,?,?,1
data_agent,5,2,weka.classifiers.trees.M5P,'-M 4.0 -num-decimal-places 4',-6118439039768244417,20260322.1817,10598,1178,0.60375,3.06438,81.728182,95.98044,0.281933,0,0,?,?,?,?,?,?,0.565,0.001,0.53125,0,531.25,0,12654,1920335,215315,?,?,?,1
data_agent,5,3,weka.classifiers.trees.M5P,'-M 4.0 -num-decimal-places 4',-6118439039768244417,20260322.1817,10598,1178,0.766271,5.156782,86.976908,99.034733,0.140396,0,0,?,?,?,?,?,?,0.526,0,0.515625,0,515.625,0,12654,1920335,215315,?,?,?,1
data_agent,5,4,weka.classifiers.trees.M5P,'-M 4.0 -num-decimal-places 4',-6118439039768244417,20260322.1817,10598,1178,0.704423,4.258353,84.666175,98.0924,0.193094,0,0,?,?,?,?,?,?,0.53,0.001,0.484375,0,484.375,0,12654,1920335,215315,?,?,?,1
data_agent,5,5,weka.classifiers.trees.M5P,'-M 4.0 -num-decimal-places 4',-6118439039768244417,20260322.1817,10598,1178,0.689244,4.242906,86.511366,98.536001,0.171355,0,0,?,?,?,?,?,?,0.538,0.001,0.53125,0,531.25,0,12654,1920335,215315,?,?,?,1
data_agent,5,6,weka.classifiers.trees.M5P,'-M 4.0 -num-decimal-places 4',-6118439039768244417,20260322.1817,10598,1178,0.614006,3.185417,78.597572,96.197382,0.275005,0,0,?,?,?,?,?,?,0.559,0,0.53125,0,531.25,0,12658,1920335,215315,?,?,?,1
data_agent,5,7,weka.classifiers.trees.M5P,'-M 4.0 -num-decimal-places 4',-6118439039768244417,20260322.1817,10599,1177,0.548293,4.109007,70.727011,96.290217,0.273307,0,0,?,?,?,?,?,?,0.558,0.001,0.5625,0,562.5,0,118442,1920516,215134,?,?,?,123
data_agent,5,8,weka.classifiers.trees.M5P,'-M 4.0 -num-decimal-places 4',-6118439039768244417,20260322.1817,10599,1177,0.506498,1.013032,83.136128,83.531343,0.565853,0,0,?,?,?,?,?,?,0.532,0,0.515625,0,515.625,0,12658,1920516,215134,?,?,?,1
data_agent,5,9,weka.classifiers.trees.M5P,'-M 4.0 -num-decimal-places 4',-6118439039768244417,20260322.1817,10599,1177,0.364072,1.131238,59.160213,84.29117,0.586317,0,0,?,?,?,?,?,?,0.528,0.001,0.53125,0,531.25,0,53804,1920516,215134,?,?,?,48
data_agent,5,10,weka.classifiers.trees.M5P,'-M 4.0 -num-decimal-places 4',-6118439039768244417,20260322.1817,10599,1177,0.599424,3.10329,84.283892,97.045504,0.241955,0,0,?,?,?,?,?,?,0.947,0,0.84375,0,843.75,0,12654,1920516,215134,?,?,?,1
data_agent,6,1,weka.classifiers.trees.M5P,'-M 4.0 -num-decimal-places 4',-6118439039768244417,20260322.1817,10598,1178,0.671694,4.271128,85.772892,98.395473,0.177784,0,0,?,?,?,?,?,?,0.709,0.001,0.65625,0,656.25,0,12650,1920335,215315,?,?,?,1
data_agent,6,2,weka.classifiers.trees.M5P,'-M 4.0 -num-decimal-places 4',-6118439039768244417,20260322.1817,10598,1178,0.591818,3.064677,83.779781,97.460965,0.226516,0,0,?,?,?,?,?,?,0.606,0.001,0.546875,0,546.875,0,12654,1920335,215315,?,?,?,1
data_agent,6,3,weka.classifiers.trees.M5P,'-M 4.0 -num-decimal-places 4',-6118439039768244417,20260322.1817,10598,1178,0.478521,3.012278,68.27248,95.387976,0.33989,0,0,?,?,?,?,?,?,0.501,0.001,0.46875,0,468.75,0,87070,1920335,215315,?,?,?,87
data_agent,6,4,weka.classifiers.trees.M5P,'-M 4.0 -num-decimal-places 4',-6118439039768244417,20260322.1817,10598,1178,0.507366,0.987703,83.629902,79.917704,0.602999,0,0,?,?,?,?,?,?,0.53,0.001,0.484375,0.015625,484.375,15.625,12654,1920335,215315,?,?,?,1
data_agent,6,5,weka.classifiers.trees.M5P,'-M 4.0 -num-decimal-places 4',-6118439039768244417,20260322.1817,10598,1178,0.568728,1.391353,81.249384,88.618138,0.466227,0,0,?,?,?,?,?,?,0.525,0.001,0.515625,0,515.625,0,12654,1920335,215315,?,?,?,1
data_agent,6,6,weka.classifiers.trees.M5P,'-M 4.0 -num-decimal-places 4',-6118439039768244417,20260322.1817,10598,1178,0.702787,4.222046,88.661129,97.942308,0.207047,0,0,?,?,?,?,?,?,0.609,0,0.59375,0,593.75,0,13620,1920335,215315,?,?,?,2
data_agent,6,7,weka.classifiers.trees.M5P,'-M 4.0 -num-decimal-places 4',-6118439039768244417,20260322.1817,10599,1177,0.754789,5.15471,85.287101,98.862989,0.150974,0,0,?,?,?,?,?,?,0.658,0.001,0.578125,0,578.125,0,12654,1920516,215134,?,?,?,1
data_agent,6,8,weka.classifiers.trees.M5P,'-M 4.0 -num-decimal-places 4',-6118439039768244417,20260322.1817,10599,1177,0.647614,3.191981,85.780659,97.603534,0.221898,0,0,?,?,?,?,?,?,0.633,0.001,0.625,0,625,0,12658,1920516,215134,?,?,?,1
data_agent,6,9,weka.classifiers.trees.M5P,'-M 4.0 -num-decimal-places 4',-6118439039768244417,20260322.1818,10599,1177,0.694873,4.297676,82.796756,97.597357,0.222017,0,0,?,?,?,?,?,?,0.595,0.001,0.5625,0,562.5,0,12654,1920516,215134,?,?,?,1
data_agent,6,10,weka.classifiers.trees.M5P,'-M 4.0 -num-decimal-places 4',-6118439039768244417,20260322.1818,10599,1177,0.621103,3.109762,82.804309,96.15435,0.278486,0,0,?,?,?,?,?,?,0.61,0.001,0.609375,0,609.375,0,13616,1920516,215134,?,?,?,2
data_agent,7,1,weka.classifiers.trees.M5P,'-M 4.0 -num-decimal-places 4',-6118439039768244417,20260322.1818,10598,1178,0.428225,2.973915,60.970554,92.761313,0.37359,0,0,?,?,?,?,?,?,0.591,0.001,0.546875,0,546.875,0,145750,1920335,215315,?,?,?,155
data_agent,7,2,weka.classifiers.trees.M5P,'-M 4.0 -num-decimal-places 4',-6118439039768244417,20260322.1818,10598,1178,0.622511,3.140925,81.02427,95.431011,0.299556,0,0,?,?,?,?,?,?,0.67,0.001,0.640625,0,640.625,0,13608,1920335,215315,?,?,?,2
data_agent,7,3,weka.classifiers.trees.M5P,'-M 4.0 -num-decimal-places 4',-6118439039768244417,20260322.1818,10598,1178,0.61132,4.26195,70.586903,95.595977,0.30792,0,0,?,?,?,?,?,?,0.583,0.001,0.515625,0,515.625,0,159778,1920335,215315,?,?,?,171
data_agent,7,4,weka.classifiers.trees.M5P,'-M 4.0 -num-decimal-places 4',-6118439039768244417,20260322.1818,10598,1178,0.487101,2.618109,66.243164,80.657488,0.600895,0,0,?,?,?,?,?,?,0.552,0.001,0.515625,0.015625,515.625,15.625,66406,1920335,215315,?,?,?,63
data_agent,7,5,weka.classifiers.trees.M5P,'-M 4.0 -num-decimal-places 4',-6118439039768244417,20260322.1818,10598,1178,0.642032,3.143606,85.648296,97.308152,0.232376,0,0,?,?,?,?,?,?,0.529,0.001,0.5,0,500,0,12658,1920335,215315,?,?,?,1
data_agent,7,6,weka.classifiers.trees.M5P,'-M 4.0 -num-decimal-places 4',-6118439039768244417,20260322.1818,10598,1178,0.621545,3.122841,82.283241,96.580603,0.259767,0,0,?,?,?,?,?,?,0.55,0,0.53125,0,531.25,0,12658,1920335,215315,?,?,?,1
data_agent,7,7,weka.classifiers.trees.M5P,'-M 4.0 -num-decimal-places 4',-6118439039768244417,20260322.1818,10599,1177,0.803787,5.165463,89.843977,98.920743,0.153866,0,0,?,?,?,?,?,?,0.582,0.001,0.5,0,500,0,13608,1920516,215134,?,?,?,2
data_agent,7,8,weka.classifiers.trees.M5P,'-M 4.0 -num-decimal-places 4',-6118439039768244417,20260322.1818,10599,1177,0.567092,3.01988,85.61967,97.31363,0.23176,0,0,?,?,?,?,?,?,0.493,0.001,0.5,0,500,0,12654,1920516,215134,?,?,?,1
data_agent,7,9,weka.classifiers.trees.M5P,'-M 4.0 -num-decimal-places 4',-6118439039768244417,20260322.1818,10599,1177,0.397955,1.262501,63.645042,100.232072,0.523665,0,0,?,?,?,?,?,?,0.48,0,0.46875,0,468.75,0,49450,1920516,215134,?,?,?,43
data_agent,7,10,weka.classifiers.trees.M5P,'-M 4.0 -num-decimal-places 4',-6118439039768244417,20260322.1818,10599,1177,0.657169,4.203454,86.615608,98.791007,0.159287,0,0,?,?,?,?,?,?,0.649,0,0.609375,0,609.375,0,12654,1920516,215134,?,?,?,1
data_agent,8,1,weka.classifiers.trees.M5P,'-M 4.0 -num-decimal-places 4',-6118439039768244417,20260322.1818,10598,1178,0.471294,3.079772,67.800567,96.730677,0.276588,0,0,?,?,?,?,?,?,0.555,0,0.515625,0,515.625,0,100522,1920335,215315,?,?,?,103
data_agent,8,2,weka.classifiers.trees.M5P,'-M 4.0 -num-decimal-places 4',-6118439039768244417,20260322.1818,10598,1178,0.58719,3.098259,82.195765,97.298712,0.233318,0,0,?,?,?,?,?,?,0.539,0.001,0.484375,0,484.375,0,12654,1920335,215315,?,?,?,1
data_agent,8,3,weka.classifiers.trees.M5P,'-M 4.0 -num-decimal-places 4',-6118439039768244417,20260322.1818,10598,1178,0.749576,5.872658,72.500378,97.24744,0.229572,0,0,?,?,?,?,?,?,0.663,0.001,0.65625,0,656.25,0,177496,1920335,215315,?,?,?,192
data_agent,8,4,weka.classifiers.trees.M5P,'-M 4.0 -num-decimal-places 4',-6118439039768244417,20260322.1818,10598,1178,0.590393,3.084684,86.604221,97.614269,0.213672,0,0,?,?,?,?,?,?,0.725,0.001,0.609375,0,609.375,0,12654,1920335,215315,?,?,?,1
data_agent,8,5,weka.classifiers.trees.M5P,'-M 4.0 -num-decimal-places 4',-6118439039768244417,20260322.1818,10598,1178,0.701519,4.225355,88.916511,98.650035,0.173046,0,0,?,?,?,?,?,?,0.632,0.001,0.5625,0,562.5,0,13608,1920335,215315,?,?,?,2
data_agent,8,6,weka.classifiers.trees.M5P,'-M 4.0 -num-decimal-places 4',-6118439039768244417,20260322.1818,10598,1178,0.675145,4.224286,85.715418,98.516788,0.176429,0,0,?,?,?,?,?,?,0.648,0.001,0.578125,0,578.125,0,13616,1920335,215315,?,?,?,2
data_agent,8,7,weka.classifiers.trees.M5P,'-M 4.0 -num-decimal-places 4',-6118439039768244417,20260322.1818,10599,1177,0.517365,0.931952,79.507842,75.268518,0.659924,0,0,?,?,?,?,?,?,0.566,0.002,0.515625,0.015625,515.625,15.625,12658,1920516,215134,?,?,?,1
data_agent,8,8,weka.classifiers.trees.M5P,'-M 4.0 -num-decimal-places 4',-6118439039768244417,20260322.1818,10599,1177,0.537656,4.005138,69.254678,91.956726,0.412964,0,0,?,?,?,?,?,?,0.735,0.002,0.671875,0,671.875,0,94868,1920516,215134,?,?,?,96
data_agent,8,9,weka.classifiers.trees.M5P,'-M 4.0 -num-decimal-places 4',-6118439039768244417,20260322.1818,10599,1177,0.563269,2.218861,80.682459,140.210489,0.329121,0,0,?,?,?,?,?,?,0.653,0.002,0.578125,0,578.125,0,70744,1920516,215134,?,?,?,68
data_agent,8,10,weka.classifiers.trees.M5P,'-M 4.0 -num-decimal-places 4',-6118439039768244417,20260322.1818,10599,1177,0.557656,1.332671,80.552419,83.800533,0.545857,0,0,?,?,?,?,?,?,0.618,0.001,0.59375,0,593.75,0,12654,1920516,215134,?,?,?,1
data_agent,9,1,weka.classifiers.trees.M5P,'-M 4.0 -num-decimal-places 4',-6118439039768244417,20260322.1818,10598,1178,0.85141,5.911626,86.604262,98.291043,0.185977,0,0,?,?,?,?,?,?,0.988,0.001,0.890625,0,890.625,0,13620,1920335,215315,?,?,?,2
data_agent,9,2,weka.classifiers.trees.M5P,'-M 4.0 -num-decimal-places 4',-6118439039768244417,20260322.1818,10598,1178,0.51244,1.088693,81.325911,84.395641,0.54566,0,0,?,?,?,?,?,?,0.586,0.002,0.5625,0,562.5,0,12658,1920335,215315,?,?,?,1
data_agent,9,3,weka.classifiers.trees.M5P,'-M 4.0 -num-decimal-places 4',-6118439039768244417,20260322.1818,10598,1178,0.670222,4.235382,85.49655,98.407759,0.178927,0,0,?,?,?,?,?,?,0.654,0.001,0.609375,0,609.375,0,12654,1920335,215315,?,?,?,1
data_agent,9,4,weka.classifiers.trees.M5P,'-M 4.0 -num-decimal-places 4',-6118439039768244417,20260322.1818,10598,1178,0.525977,1.009557,81.6784,80.23919,0.603585,0,0,?,?,?,?,?,?,0.646,0.002,0.5625,0,562.5,0,12654,1920335,215315,?,?,?,1
data_agent,9,5,weka.classifiers.trees.M5P,'-M 4.0 -num-decimal-places 4',-6118439039768244417,20260322.1818,10598,1178,0.696791,4.286412,84.875118,98.1888,0.189425,0,0,?,?,?,?,?,?,0.678,0.002,0.625,0,625,0,12654,1920335,215315,?,?,?,1
data_agent,9,6,weka.classifiers.trees.M5P,'-M 4.0 -num-decimal-places 4',-6118439039768244417,20260322.1818,10598,1178,0.531108,1.119354,81.044784,82.157758,0.571233,0,0,?,?,?,?,?,?,0.682,0.001,0.671875,0,671.875,0,12654,1920335,215315,?,?,?,1
data_agent,9,7,weka.classifiers.trees.M5P,'-M 4.0 -num-decimal-places 4',-6118439039768244417,20260322.1818,10599,1177,0.549239,4.152922,69.69936,96.248496,0.271652,0,0,?,?,?,?,?,?,0.696,0.001,0.625,0,625,0,92250,1920516,215134,?,?,?,93
data_agent,9,8,weka.classifiers.trees.M5P,'-M 4.0 -num-decimal-places 4',-6118439039768244417,20260322.1818,10599,1177,0.497807,1.887141,77.30941,136.900753,0.358463,0,0,?,?,?,?,?,?,0.77,0.003,0.71875,0,718.75,0,73662,1920516,215134,?,?,?,71
data_agent,9,9,weka.classifiers.trees.M5P,'-M 4.0 -num-decimal-places 4',-6118439039768244417,20260322.1818,10599,1177,0.711031,4.310619,84.982655,97.746731,0.213979,0,0,?,?,?,?,?,?,0.767,0.001,0.640625,0,640.625,0,12650,1920516,215134,?,?,?,1
data_agent,9,10,weka.classifiers.trees.M5P,'-M 4.0 -num-decimal-places 4',-6118439039768244417,20260322.1818,10599,1177,0.603284,3.06952,82.595185,96.245427,0.272589,0,0,?,?,?,?,?,?,0.848,0.001,0.8125,0,812.5,0,13620,1920516,215134,?,?,?,2
data_agent,10,1,weka.classifiers.trees.M5P,'-M 4.0 -num-decimal-places 4',-6118439039768244417,20260322.1818,10598,1178,0.583406,4.197489,72.985382,96.626148,0.25875,0,0,?,?,?,?,?,?,0.733,0.003,0.640625,0,640.625,0,101154,1920335,215315,?,?,?,103
data_agent,10,2,weka.classifiers.trees.M5P,'-M 4.0 -num-decimal-places 4',-6118439039768244417,20260322.1818,10598,1178,0.80299,5.143647,85.86292,98.316246,0.182666,0,0,?,?,?,?,?,?,0.796,0.002,0.765625,0,765.625,0,13608,1920335,215315,?,?,?,2
data_agent,10,3,weka.classifiers.trees.M5P,'-M 4.0 -num-decimal-places 4',-6118439039768244417,20260322.1818,10598,1178,0.617573,3.152548,83.475397,97.729034,0.2161,0,0,?,?,?,?,?,?,0.614,0.001,0.5625,0,562.5,0,12658,1920335,215315,?,?,?,1
data_agent,10,4,weka.classifiers.trees.M5P,'-M 4.0 -num-decimal-places 4',-6118439039768244417,20260322.1818,10598,1178,0.733822,4.289467,83.746497,97.534526,0.222148,0,0,?,?,?,?,?,?,0.635,0.001,0.609375,0,609.375,0,12650,1920335,215315,?,?,?,1
data_agent,10,5,weka.classifiers.trees.M5P,'-M 4.0 -num-decimal-places 4',-6118439039768244417,20260322.1818,10598,1178,0.674811,4.265173,84.338537,98.163823,0.190569,0,0,?,?,?,?,?,?,0.721,0.001,0.703125,0,703.125,0,12654,1920335,215315,?,?,?,1
data_agent,10,6,weka.classifiers.trees.M5P,'-M 4.0 -num-decimal-places 4',-6118439039768244417,20260322.1818,10598,1178,0.529425,1.085069,84.418847,87.091388,0.522736,0,0,?,?,?,?,?,?,0.547,0.001,0.546875,0,546.875,0,12650,1920335,215315,?,?,?,1
data_agent,10,7,weka.classifiers.trees.M5P,'-M 4.0 -num-decimal-places 4',-6118439039768244417,20260322.1818,10599,1177,0.734844,5.115358,85.038625,98.59105,0.168158,0,0,?,?,?,?,?,?,0.596,0.001,0.453125,0,453.125,0,12658,1920516,215134,?,?,?,1
data_agent,10,8,weka.classifiers.trees.M5P,'-M 4.0 -num-decimal-places 4',-6118439039768244417,20260322.1818,10599,1177,0.467871,0.922617,81.63884,81.718453,0.582015,0,0,?,?,?,?,?,?,0.501,0.001,0.453125,0,453.125,0,12654,1920516,215134,?,?,?,1
data_agent,10,9,weka.classifiers.trees.M5P,'-M 4.0 -num-decimal-places 4',-6118439039768244417,20260322.1818,10599,1177,0.52743,1.216111,83.453958,82.917679,0.560098,0,0,?,?,?,?,?,?,0.528,0,0.453125,0,453.125,0,12654,1920516,215134,?,?,?,1
data_agent,10,10,weka.classifiers.trees.M5P,'-M 4.0 -num-decimal-places 4',-6118439039768244417,20260322.1818,10599,1177,0.402904,1.250844,60.017803,84.173623,0.574596,0,0,?,?,?,?,?,?,0.529,0.001,0.484375,0,484.375,0,88806,1920516,215134,?,?,?,89
data_keyboard,1,1,weka.classifiers.trees.M5P,'-M 4.0 -num-decimal-places 4',-6118439039768244417,20260322.1818,12566,1397,0.950966,4.347134,57.617368,83.297595,0.596094,0,0,?,?,?,?,?,?,1.11,0,1.046875,0,1046.875,0,132412,2276546,254957,?,?,?,138
data_keyboard,1,2,weka.classifiers.trees.M5P,'-M 4.0 -num-decimal-places 4',-6118439039768244417,20260322.1818,12566,1397,0.807347,3.133316,53.107994,87.96097,0.490513,0,0,?,?,?,?,?,?,1.197,0.001,1.078125,0,1078.125,0,191262,2276546,254957,?,?,?,205
data_keyboard,1,3,weka.classifiers.trees.M5P,'-M 4.0 -num-decimal-places 4',-6118439039768244417,20260322.1818,12566,1397,1.122063,6.350004,61.974127,91.635998,0.41272,0,0,?,?,?,?,?,?,1.075,0,1.046875,0,1046.875,0,202038,2276546,254957,?,?,?,217
data_keyboard,1,4,weka.classifiers.trees.M5P,'-M 4.0 -num-decimal-places 4',-6118439039768244417,20260322.1818,12567,1396,0.840574,2.119358,55.951049,83.281998,0.60112,0,0,?,?,?,?,?,?,1.08,0,1,0,1000,0,190464,2276727,254776,?,?,?,204
data_keyboard,1,5,weka.classifiers.trees.M5P,'-M 4.0 -num-decimal-places 4',-6118439039768244417,20260322.1818,12567,1396,1.120044,5.44667,62.651957,91.894597,0.394002,0,0,?,?,?,?,?,?,0.854,0.001,0.8125,0,812.5,0,214948,2276727,254776,?,?,?,232
data_keyboard,1,6,weka.classifiers.trees.M5P,'-M 4.0 -num-decimal-places 4',-6118439039768244417,20260322.1818,12567,1396,0.765667,3.151292,50.276705,71.970965,0.706706,0,0,?,?,?,?,?,?,0.804,0.001,0.765625,0,765.625,0,172868,2276727,254776,?,?,?,184
data_keyboard,1,7,weka.classifiers.trees.M5P,'-M 4.0 -num-decimal-places 4',-6118439039768244417,20260322.1818,12567,1396,0.962762,3.996302,58.009188,88.711688,0.461746,0,0,?,?,?,?,?,?,0.777,0.001,0.671875,0,671.875,0,182546,2276727,254776,?,?,?,195
data_keyboard,1,8,weka.classifiers.trees.M5P,'-M 4.0 -num-decimal-places 4',-6118439039768244417,20260322.1818,12567,1396,1.064852,5.159125,64.451886,98.407852,0.277036,0,0,?,?,?,?,?,?,0.835,0.001,0.78125,0,781.25,0,142326,2276727,254776,?,?,?,149
data_keyboard,1,9,weka.classifiers.trees.M5P,'-M 4.0 -num-decimal-places 4',-6118439039768244417,20260322.1818,12567,1396,0.939069,4.659275,57.457901,89.374345,0.452698,0,0,?,?,?,?,?,?,0.82,0.001,0.765625,0,765.625,0,159004,2276727,254776,?,?,?,168
data_keyboard,1,10,weka.classifiers.trees.M5P,'-M 4.0 -num-decimal-places 4',-6118439039768244417,20260322.1818,12567,1396,1.388074,5.999258,78.708166,93.416574,0.397144,0,0,?,?,?,?,?,?,0.892,0.001,0.796875,0,796.875,0,11894,2276727,254776,?,?,?,1
data_keyboard,2,1,weka.classifiers.trees.M5P,'-M 4.0 -num-decimal-places 4',-6118439039768244417,20260322.1818,12566,1397,0.978137,4.307953,63.209636,96.303417,0.322528,0,0,?,?,?,?,?,?,0.922,0.002,0.875,0,875,0,135758,2276546,254957,?,?,?,141
data_keyboard,2,2,weka.classifiers.trees.M5P,'-M 4.0 -num-decimal-places 4',-6118439039768244417,20260322.1818,12566,1397,0.785277,2.46084,53.669465,101.396588,0.570572,0,0,?,?,?,?,?,?,1.185,0.002,1.0625,0,1062.5,0,207098,2276546,254957,?,?,?,223
data_keyboard,2,3,weka.classifiers.trees.M5P,'-M 4.0 -num-decimal-places 4',-6118439039768244417,20260322.1818,12566,1397,1.196658,5.960104,67.886436,93.118494,0.365232,0,0,?,?,?,?,?,?,1.055,0.001,1.015625,0,1015.625,0,171978,2276546,254957,?,?,?,183
data_keyboard,2,4,weka.classifiers.trees.M5P,'-M 4.0 -num-decimal-places 4',-6118439039768244417,20260322.1818,12567,1396,0.820365,3.307033,53.789482,91.656439,0.431312,0,0,?,?,?,?,?,?,0.948,0.001,0.90625,0,906.25,0,196530,2276727,254776,?,?,?,211
data_keyboard,2,5,weka.classifiers.trees.M5P,'-M 4.0 -num-decimal-places 4',-6118439039768244417,20260322.1818,12567,1396,0.899776,5.26294,53.226131,90.204852,0.439257,0,0,?,?,?,?,?,?,1.094,0.001,1.03125,0,1031.25,0,207576,2276727,254776,?,?,?,224
data_keyboard,2,6,weka.classifiers.trees.M5P,'-M 4.0 -num-decimal-places 4',-6118439039768244417,20260322.1818,12567,1396,0.904323,3.240335,57.548542,88.089233,0.48102,0,0,?,?,?,?,?,?,1.042,0.001,0.875,0,875,0,141984,2276727,254776,?,?,?,148
data_keyboard,2,7,weka.classifiers.trees.M5P,'-M 4.0 -num-decimal-places 4',-6118439039768244417,20260322.1818,12567,1396,0.980172,4.458967,59.745814,98.297411,0.682736,0,0,?,?,?,?,?,?,1.157,0.001,1.015625,0,1015.625,0,186438,2276727,254776,?,?,?,199
data_keyboard,2,8,weka.classifiers.trees.M5P,'-M 4.0 -num-decimal-places 4',-6118439039768244417,20260322.1818,12567,1396,0.999383,5.337117,56.26305,90.775411,0.425697,0,0,?,?,?,?,?,?,0.862,0.001,0.84375,0,843.75,0,202136,2276727,254776,?,?,?,218
data_keyboard,2,9,weka.classifiers.trees.M5P,'-M 4.0 -num-decimal-places 4',-6118439039768244417,20260322.1818,12567,1396,1.042954,4.981941,58.164469,84.139167,0.542803,0,0,?,?,?,?,?,?,0.854,0.001,0.78125,0,781.25,0,201746,2276727,254776,?,?,?,217
data_keyboard,2,10,weka.classifiers.trees.M5P,'-M 4.0 -num-decimal-places 4',-6118439039768244417,20260322.1818,12567,1396,1.11838,6.133636,64.556368,89.237706,0.482177,0,0,?,?,?,?,?,?,0.891,0.001,0.796875,0,796.875,0,173738,2276727,254776,?,?,?,185
data_keyboard,3,1,weka.classifiers.trees.M5P,'-M 4.0 -num-decimal-places 4',-6118439039768244417,20260322.1818,12566,1397,0.906001,4.817974,56.505446,92.727354,0.374555,0,0,?,?,?,?,?,?,1.136,0,1.046875,0,1046.875,0,211866,2276546,254957,?,?,?,229
data_keyboard,3,2,weka.classifiers.trees.M5P,'-M 4.0 -num-decimal-places 4',-6118439039768244417,20260322.1818,12566,1397,1.215174,5.213176,71.804198,98.814589,0.314567,0,0,?,?,?,?,?,?,1.077,0.001,0.96875,0.015625,968.75,15.625,150700,2276546,254957,?,?,?,158
data_keyboard,3,3,weka.classifiers.trees.M5P,'-M 4.0 -num-decimal-places 4',-6118439039768244417,20260322.1818,12566,1397,0.976325,3.568542,57.433157,77.005286,0.640269,0,0,?,?,?,?,?,?,0.917,0.001,0.890625,0,890.625,0,175708,2276546,254957,?,?,?,186
data_keyboard,3,4,weka.classifiers.trees.M5P,'-M 4.0 -num-decimal-places 4',-6118439039768244417,20260322.1818,12567,1396,1.007483,5.53624,59.164275,94.757661,0.322003,0,0,?,?,?,?,?,?,1.153,0.001,1.015625,0,1015.625,0,202380,2276727,254776,?,?,?,218
data_keyboard,3,5,weka.classifiers.trees.M5P,'-M 4.0 -num-decimal-places 4',-6118439039768244417,20260322.1818,12567,1396,0.837575,2.293511,52.996773,62.796819,0.779843,0,0,?,?,?,?,?,?,1.031,0.001,0.96875,0,968.75,0,175574,2276727,254776,?,?,?,187
data_keyboard,3,6,weka.classifiers.trees.M5P,'-M 4.0 -num-decimal-places 4',-6118439039768244417,20260322.1818,12567,1396,1.187026,6.629396,62.123441,89.082502,0.494141,0,0,?,?,?,?,?,?,1.046,0.002,1.015625,0,1015.625,0,188948,2276727,254776,?,?,?,202
data_keyboard,3,7,weka.classifiers.trees.M5P,'-M 4.0 -num-decimal-places 4',-6118439039768244417,20260322.1818,12567,1396,0.907183,3.223027,57.983897,88.074157,0.487189,0,0,?,?,?,?,?,?,1.099,0.001,0.90625,0.015625,906.25,15.625,177912,2276727,254776,?,?,?,190
data_keyboard,3,8,weka.classifiers.trees.M5P,'-M 4.0 -num-decimal-places 4',-6118439039768244417,20260322.1818,12567,1396,0.737531,3.200344,51.362207,93.149861,0.456611,0,0,?,?,?,?,?,?,0.909,0.001,0.828125,0,828.125,0,176480,2276727,254776,?,?,?,188
data_keyboard,3,9,weka.classifiers.trees.M5P,'-M 4.0 -num-decimal-places 4',-6118439039768244417,20260322.1818,12567,1396,0.869061,3.897159,56.133491,88.816414,0.459866,0,0,?,?,?,?,?,?,0.884,0.001,0.84375,0,843.75,0,157056,2276727,254776,?,?,?,166
data_keyboard,3,10,weka.classifiers.trees.M5P,'-M 4.0 -num-decimal-places 4',-6118439039768244417,20260322.1818,12567,1396,1.422076,6.26233,80.625209,97.444388,0.225,0,0,?,?,?,?,?,?,1.136,0.001,1.0625,0,1062.5,0,11894,2276727,254776,?,?,?,1
data_keyboard,4,1,weka.classifiers.trees.M5P,'-M 4.0 -num-decimal-places 4',-6118439039768244417,20260322.1818,12566,1397,0.847858,3.451899,51.32385,75.614768,0.655712,0,0,?,?,?,?,?,?,1.301,0.001,1.140625,0,1140.625,0,157932,2276546,254957,?,?,?,166
data_keyboard,4,2,weka.classifiers.trees.M5P,'-M 4.0 -num-decimal-places 4',-6118439039768244417,20260322.1818,12566,1397,0.944971,4.17697,59.767538,93.397091,0.360823,0,0,?,?,?,?,?,?,1.129,0.001,0.984375,0,984.375,0,176260,2276546,254957,?,?,?,188
data_keyboard,4,3,weka.classifiers.trees.M5P,'-M 4.0 -num-decimal-places 4',-6118439039768244417,20260322.1819,12566,1397,1.011033,5.419311,60.595011,93.413231,0.36396,0,0,?,?,?,?,?,?,1.14,0.001,1.078125,0,1078.125,0,201552,2276546,254957,?,?,?,216
data_keyboard,4,4,weka.classifiers.trees.M5P,'-M 4.0 -num-decimal-places 4',-6118439039768244417,20260322.1819,12567,1396,0.774062,2.047804,55.466843,89.58404,0.577026,0,0,?,?,?,?,?,?,1.082,0.002,0.9375,0.015625,937.5,15.625,173910,2276727,254776,?,?,?,185
data_keyboard,4,5,weka.classifiers.trees.M5P,'-M 4.0 -num-decimal-places 4',-6118439039768244417,20260322.1819,12567,1396,0.956786,3.453579,61.455784,94.67119,0.409055,0,0,?,?,?,?,?,?,1.111,0.001,0.96875,0,968.75,0,185670,2276727,254776,?,?,?,199
data_keyboard,4,6,weka.classifiers.trees.M5P,'-M 4.0 -num-decimal-places 4',-6118439039768244417,20260322.1819,12567,1396,1.073007,4.912768,67.573653,94.653754,0.323268,0,0,?,?,?,?,?,?,1.081,0.001,1.015625,0,1015.625,0,66544,2276727,254776,?,?,?,62
data_keyboard,4,7,weka.classifiers.trees.M5P,'-M 4.0 -num-decimal-places 4',-6118439039768244417,20260322.1819,12567,1396,0.93925,4.27555,57.317422,94.531222,0.350489,0,0,?,?,?,?,?,?,0.801,0.001,0.71875,0,718.75,0,160916,2276727,254776,?,?,?,170
data_keyboard,4,8,weka.classifiers.trees.M5P,'-M 4.0 -num-decimal-places 4',-6118439039768244417,20260322.1819,12567,1396,1.427835,6.075192,78.118809,94.135571,0.359433,0,0,?,?,?,?,?,?,0.924,0.001,0.890625,0,890.625,0,11894,2276727,254776,?,?,?,1
data_keyboard,4,9,weka.classifiers.trees.M5P,'-M 4.0 -num-decimal-places 4',-6118439039768244417,20260322.1819,12567,1396,1.101188,4.879087,68.115707,94.013918,0.360713,0,0,?,?,?,?,?,?,1.134,0.001,0.984375,0,984.375,0,188172,2276727,254776,?,?,?,202
data_keyboard,4,10,weka.classifiers.trees.M5P,'-M 4.0 -num-decimal-places 4',-6118439039768244417,20260322.1819,12567,1396,1.565961,7.200017,79.153787,96.30901,0.2743,0,0,?,?,?,?,?,?,1.009,0.001,0.921875,0,921.875,0,11894,2276727,254776,?,?,?,1
data_keyboard,5,1,weka.classifiers.trees.M5P,'-M 4.0 -num-decimal-places 4',-6118439039768244417,20260322.1819,12566,1397,1.437047,6.275381,82.253478,97.546337,0.22059,0,0,?,?,?,?,?,?,0.966,0.001,0.8125,0,812.5,0,11894,2276546,254957,?,?,?,1
data_keyboard,5,2,weka.classifiers.trees.M5P,'-M 4.0 -num-decimal-places 4',-6118439039768244417,20260322.1819,12566,1397,0.887603,3.898463,56.405087,87.926236,0.47654,0,0,?,?,?,?,?,?,0.879,0.001,0.828125,0,828.125,0,183076,2276546,254957,?,?,?,196
data_keyboard,5,3,weka.classifiers.trees.M5P,'-M 4.0 -num-decimal-places 4',-6118439039768244417,20260322.1819,12566,1397,0.929735,4.632257,54.519765,88.71886,0.464656,0,0,?,?,?,?,?,?,0.921,0.003,0.828125,0,828.125,0,154768,2276546,254957,?,?,?,162
data_keyboard,5,4,weka.classifiers.trees.M5P,'-M 4.0 -num-decimal-places 4',-6118439039768244417,20260322.1819,12567,1396,0.856638,3.9373,54.933779,88.666327,0.462657,0,0,?,?,?,?,?,?,1.089,0.001,0.9375,0,937.5,0,136576,2276727,254776,?,?,?,142
data_keyboard,5,5,weka.classifiers.trees.M5P,'-M 4.0 -num-decimal-places 4',-6118439039768244417,20260322.1819,12567,1396,0.879635,3.22009,56.314375,87.525025,0.49051,0,0,?,?,?,?,?,?,1.057,0.001,0.96875,0,968.75,0,195376,2276727,254776,?,?,?,210
data_keyboard,5,6,weka.classifiers.trees.M5P,'-M 4.0 -num-decimal-places 4',-6118439039768244417,20260322.1819,12567,1396,0.914829,3.974149,59.463914,89.891551,0.438193,0,0,?,?,?,?,?,?,0.997,0.001,0.890625,0,890.625,0,141832,2276727,254776,?,?,?,148
data_keyboard,5,7,weka.classifiers.trees.M5P,'-M 4.0 -num-decimal-places 4',-6118439039768244417,20260322.1819,12567,1396,1.153587,6.143284,61.991512,94.614958,0.330313,0,0,?,?,?,?,?,?,1.005,0,0.890625,0,890.625,0,195852,2276727,254776,?,?,?,210
data_keyboard,5,8,weka.classifiers.trees.M5P,'-M 4.0 -num-decimal-places 4',-6118439039768244417,20260322.1819,12567,1396,1.061044,4.971912,63.056548,94.768949,0.321291,0,0,?,?,?,?,?,?,0.966,0.001,0.90625,0,906.25,0,154630,2276727,254776,?,?,?,163
data_keyboard,5,9,weka.classifiers.trees.M5P,'-M 4.0 -num-decimal-places 4',-6118439039768244417,20260322.1819,12567,1396,1.227852,3.812328,79.016456,85.788473,0.570999,0,0,?,?,?,?,?,?,0.925,0.003,0.828125,0,828.125,0,11894,2276727,254776,?,?,?,1
data_keyboard,5,10,weka.classifiers.trees.M5P,'-M 4.0 -num-decimal-places 4',-6118439039768244417,20260322.1819,12567,1396,1.036368,5.563087,60.233039,94.903479,0.316102,0,0,?,?,?,?,?,?,1.312,0.002,1.1875,0,1187.5,0,169000,2276727,254776,?,?,?,180
data_keyboard,6,1,weka.classifiers.trees.M5P,'-M 4.0 -num-decimal-places 4',-6118439039768244417,20260322.1819,12566,1397,0.921503,4.062698,62.541602,93.466432,0.698055,0,0,?,?,?,?,?,?,1.101,0.002,1.046875,0,1046.875,0,205600,2276546,254957,?,?,?,222
data_keyboard,6,2,weka.classifiers.trees.M5P,'-M 4.0 -num-decimal-places 4',-6118439039768244417,20260322.1819,12566,1397,0.818436,2.16084,56.234864,88.099463,0.581526,0,0,?,?,?,?,?,?,1.237,0.001,1.171875,0,1171.875,0,182262,2276546,254957,?,?,?,195
data_keyboard,6,3,weka.classifiers.trees.M5P,'-M 4.0 -num-decimal-places 4',-6118439039768244417,20260322.1819,12566,1397,1.072569,6.018178,63.318246,102.957077,0.222605,0,0,?,?,?,?,?,?,1.57,0.003,1.34375,0.015625,1343.75,15.625,230158,2276546,254957,?,?,?,249
data_keyboard,6,4,weka.classifiers.trees.M5P,'-M 4.0 -num-decimal-places 4',-6118439039768244417,20260322.1819,12567,1396,1.111212,5.868819,63.130479,99.606415,0.252674,0,0,?,?,?,?,?,?,1.992,0.002,1.53125,0,1531.25,0,152104,2276727,254776,?,?,?,160
data_keyboard,6,5,weka.classifiers.trees.M5P,'-M 4.0 -num-decimal-places 4',-6118439039768244417,20260322.1819,12567,1396,1.010003,5.259156,58.478288,90.213855,0.435872,0,0,?,?,?,?,?,?,1.882,0.002,1.578125,0,1578.125,0,171456,2276727,254776,?,?,?,182
data_keyboard,6,6,weka.classifiers.trees.M5P,'-M 4.0 -num-decimal-places 4',-6118439039768244417,20260322.1819,12567,1396,1.021267,5.122003,60.337288,87.640782,0.49475,0,0,?,?,?,?,?,?,1.441,0.002,1.390625,0,1390.625,0,184932,2276727,254776,?,?,?,198
data_keyboard,6,7,weka.classifiers.trees.M5P,'-M 4.0 -num-decimal-places 4',-6118439039768244417,20260322.1819,12567,1396,1.100705,5.437374,62.290459,92.084799,0.391688,0,0,?,?,?,?,?,?,1.536,0.002,1.375,0,1375,0,157818,2276727,254776,?,?,?,167
data_keyboard,6,8,weka.classifiers.trees.M5P,'-M 4.0 -num-decimal-places 4',-6118439039768244417,20260322.1819,12567,1396,1.017602,4.896463,62.493591,94.029239,0.365768,0,0,?,?,?,?,?,?,1.34,0.001,1.296875,0,1296.875,0,162262,2276727,254776,?,?,?,171
data_keyboard,6,9,weka.classifiers.trees.M5P,'-M 4.0 -num-decimal-places 4',-6118439039768244417,20260322.1819,12567,1396,0.882606,3.94045,55.628367,88.706591,0.461751,0,0,?,?,?,?,?,?,1.176,0,1.09375,0,1093.75,0,159734,2276727,254776,?,?,?,169
data_keyboard,6,10,weka.classifiers.trees.M5P,'-M 4.0 -num-decimal-places 4',-6118439039768244417,20260322.1819,12567,1396,0.898014,4.009323,52.181842,86.905208,0.497578,0,0,?,?,?,?,?,?,1.144,0.001,1.03125,0,1031.25,0,149534,2276727,254776,?,?,?,157
data_keyboard,7,1,weka.classifiers.trees.M5P,'-M 4.0 -num-decimal-places 4',-6118439039768244417,20260322.1819,12566,1397,0.865291,3.989839,53.166842,87.848437,0.47872,0,0,?,?,?,?,?,?,1.372,0.002,1.28125,0.015625,1281.25,15.625,161582,2276546,254957,?,?,?,171
data_keyboard,7,2,weka.classifiers.trees.M5P,'-M 4.0 -num-decimal-places 4',-6118439039768244417,20260322.1819,12566,1397,1.110844,6.335773,61.948237,91.758093,0.414413,0,0,?,?,?,?,?,?,1.668,0.003,1.46875,0,1468.75,0,199962,2276546,254957,?,?,?,215
data_keyboard,7,3,weka.classifiers.trees.M5P,'-M 4.0 -num-decimal-places 4',-6118439039768244417,20260322.1819,12566,1397,0.9236,3.411685,60.209298,94.836037,0.39482,0,0,?,?,?,?,?,?,1.617,0.002,1.390625,0,1390.625,0,160740,2276546,254957,?,?,?,170
data_keyboard,7,4,weka.classifiers.trees.M5P,'-M 4.0 -num-decimal-places 4',-6118439039768244417,20260322.1819,12567,1396,1.249963,6.33972,62.687844,84.059599,0.5598,0,0,?,?,?,?,?,?,1.811,0.002,1.5,0,1500,0,218456,2276727,254776,?,?,?,236
data_keyboard,7,5,weka.classifiers.trees.M5P,'-M 4.0 -num-decimal-places 4',-6118439039768244417,20260322.1819,12567,1396,0.894704,4.116566,56.12404,91.697809,0.407424,0,0,?,?,?,?,?,?,1.243,0.001,1.140625,0,1140.625,0,187264,2276727,254776,?,?,?,200
data_keyboard,7,6,weka.classifiers.trees.M5P,'-M 4.0 -num-decimal-places 4',-6118439039768244417,20260322.1819,12567,1396,0.944985,4.552482,58.280104,87.783538,0.48999,0,0,?,?,?,?,?,?,1.153,0.001,1.125,0,1125,0,160390,2276727,254776,?,?,?,169
data_keyboard,7,7,weka.classifiers.trees.M5P,'-M 4.0 -num-decimal-places 4',-6118439039768244417,20260322.1819,12567,1396,1.027382,4.829241,59.091025,91.183088,0.411469,0,0,?,?,?,?,?,?,1.185,0.002,1.0625,0,1062.5,0,176352,2276727,254776,?,?,?,188
data_keyboard,7,8,weka.classifiers.trees.M5P,'-M 4.0 -num-decimal-places 4',-6118439039768244417,20260322.1819,12567,1396,0.825681,3.086959,57.585604,89.518226,0.473086,0,0,?,?,?,?,?,?,1.389,0.002,1.34375,0,1343.75,0,193402,2276727,254776,?,?,?,207
data_keyboard,7,9,weka.classifiers.trees.M5P,'-M 4.0 -num-decimal-places 4',-6118439039768244417,20260322.1819,12567,1396,1.050916,5.062321,62.022303,96.549409,0.288046,0,0,?,?,?,?,?,?,1.358,0.001,1.265625,0,1265.625,0,153528,2276727,254776,?,?,?,162
data_keyboard,7,10,weka.classifiers.trees.M5P,'-M 4.0 -num-decimal-places 4',-6118439039768244417,20260322.1819,12567,1396,0.847909,3.071408,57.655248,87.60377,0.492509,0,0,?,?,?,?,?,?,1.327,0.001,1.171875,0,1171.875,0,145666,2276727,254776,?,?,?,153
data_keyboard,8,1,weka.classifiers.trees.M5P,'-M 4.0 -num-decimal-places 4',-6118439039768244417,20260322.1819,12566,1397,0.882024,4.767506,54.13996,92.90057,0.400167,0,0,?,?,?,?,?,?,1.391,0.002,1.296875,0,1296.875,0,177754,2276546,254957,?,?,?,189
data_keyboard,8,2,weka.classifiers.trees.M5P,'-M 4.0 -num-decimal-places 4',-6118439039768244417,20260322.1819,12566,1397,0.872763,3.253549,56.089992,88.229386,0.470728,0,0,?,?,?,?,?,?,1.213,0.002,1.171875,0,1171.875,0,222306,2276546,254957,?,?,?,241
data_keyboard,8,3,weka.classifiers.trees.M5P,'-M 4.0 -num-decimal-places 4',-6118439039768244417,20260322.1819,12566,1397,1.09307,5.950361,59.504443,91.940403,0.395895,0,0,?,?,?,?,?,?,1.055,0.001,1.03125,0,1031.25,0,240276,2276546,254957,?,?,?,262
data_keyboard,8,4,weka.classifiers.trees.M5P,'-M 4.0 -num-decimal-places 4',-6118439039768244417,20260322.1819,12567,1396,1.409648,6.165332,80.679172,96.05903,0.284044,0,0,?,?,?,?,?,?,1.074,0.001,1,0,1000,0,11894,2276727,254776,?,?,?,1
data_keyboard,8,5,weka.classifiers.trees.M5P,'-M 4.0 -num-decimal-places 4',-6118439039768244417,20260322.1819,12567,1396,0.992958,5.358048,55.883548,90.918288,0.422012,0,0,?,?,?,?,?,?,1.06,0.001,1.03125,0,1031.25,0,202772,2276727,254776,?,?,?,218
data_keyboard,8,6,weka.classifiers.trees.M5P,'-M 4.0 -num-decimal-places 4',-6118439039768244417,20260322.1819,12567,1396,0.939042,3.297562,58.476692,88.784073,0.473614,0,0,?,?,?,?,?,?,1.136,0.001,1.078125,0,1078.125,0,140786,2276727,254776,?,?,?,147
data_keyboard,8,7,weka.classifiers.trees.M5P,'-M 4.0 -num-decimal-places 4',-6118439039768244417,20260322.1819,12567,1396,0.870868,4.10046,54.633251,80.398893,0.602041,0,0,?,?,?,?,?,?,1.265,0.002,1.171875,0,1171.875,0,147272,2276727,254776,?,?,?,154
data_keyboard,8,8,weka.classifiers.trees.M5P,'-M 4.0 -num-decimal-places 4',-6118439039768244417,20260322.1819,12567,1396,1.066448,4.189285,67.914609,93.395104,0.390132,0,0,?,?,?,?,?,?,1.477,0.002,1.328125,0,1328.125,0,121834,2276727,254776,?,?,?,125
data_keyboard,8,9,weka.classifiers.trees.M5P,'-M 4.0 -num-decimal-places 4',-6118439039768244417,20260322.1819,12567,1396,0.964311,5.032997,59.868578,96.892405,0.263226,0,0,?,?,?,?,?,?,1.412,0.002,1.359375,0,1359.375,0,174074,2276727,254776,?,?,?,185
data_keyboard,8,10,weka.classifiers.trees.M5P,'-M 4.0 -num-decimal-places 4',-6118439039768244417,20260322.182,12567,1396,0.903486,3.913965,57.362126,87.034757,0.49384,0,0,?,?,?,?,?,?,1.099,0.002,1,0,1000,0,206328,2276727,254776,?,?,?,222
data_keyboard,9,1,weka.classifiers.trees.M5P,'-M 4.0 -num-decimal-places 4',-6118439039768244417,20260322.182,12566,1397,0.898079,4.224039,55.266068,92.987411,0.418656,0,0,?,?,?,?,?,?,1.123,0.001,1.078125,0,1078.125,0,219852,2276546,254957,?,?,?,238
data_keyboard,9,2,weka.classifiers.trees.M5P,'-M 4.0 -num-decimal-places 4',-6118439039768244417,20260322.182,12566,1397,0.83696,3.182475,59.285443,91.698099,0.446872,0,0,?,?,?,?,?,?,1.125,0.003,1.09375,0,1093.75,0,172812,2276546,254957,?,?,?,184
data_keyboard,9,3,weka.classifiers.trees.M5P,'-M 4.0 -num-decimal-places 4',-6118439039768244417,20260322.182,12566,1397,1.075534,4.95613,63.367975,84.797865,0.570538,0,0,?,?,?,?,?,?,1.283,0.001,1.15625,0,1156.25,0,148408,2276546,254957,?,?,?,156
data_keyboard,9,4,weka.classifiers.trees.M5P,'-M 4.0 -num-decimal-places 4',-6118439039768244417,20260322.182,12567,1396,0.744221,3.068163,49.230051,85.47219,0.526132,0,0,?,?,?,?,?,?,1.367,0.003,1.28125,0,1281.25,0,226454,2276727,254776,?,?,?,245
data_keyboard,9,5,weka.classifiers.trees.M5P,'-M 4.0 -num-decimal-places 4',-6118439039768244417,20260322.182,12567,1396,1.064797,6.171353,60.623944,89.484068,0.446994,0,0,?,?,?,?,?,?,1.281,0.002,1.234375,0,1234.375,0,133076,2276727,254776,?,?,?,138
data_keyboard,9,6,weka.classifiers.trees.M5P,'-M 4.0 -num-decimal-places 4',-6118439039768244417,20260322.182,12567,1396,1.172163,5.964925,64.852227,92.426052,0.384791,0,0,?,?,?,?,?,?,1.19,0.001,1.125,0,1125,0,148900,2276727,254776,?,?,?,156
data_keyboard,9,7,weka.classifiers.trees.M5P,'-M 4.0 -num-decimal-places 4',-6118439039768244417,20260322.182,12567,1396,0.945043,4.158924,57.956147,91.872882,0.394576,0,0,?,?,?,?,?,?,1.452,0.003,1.4375,0,1437.5,0,224632,2276727,254776,?,?,?,244
data_keyboard,9,8,weka.classifiers.trees.M5P,'-M 4.0 -num-decimal-places 4',-6118439039768244417,20260322.182,12567,1396,0.825542,4.069358,54.194951,92.510045,0.380109,0,0,?,?,?,?,?,?,1.452,0.002,1.359375,0,1359.375,0,213774,2276727,254776,?,?,?,231
data_keyboard,9,9,weka.classifiers.trees.M5P,'-M 4.0 -num-decimal-places 4',-6118439039768244417,20260322.182,12567,1396,1.021623,4.487443,57.511552,84.137763,0.556498,0,0,?,?,?,?,?,?,1.291,0.001,1.265625,0,1265.625,0,187258,2276727,254776,?,?,?,201
data_keyboard,9,10,weka.classifiers.trees.M5P,'-M 4.0 -num-decimal-places 4',-6118439039768244417,20260322.182,12567,1396,1.019431,4.706874,57.866276,89.456113,0.447016,0,0,?,?,?,?,?,?,1.118,0.001,1.078125,0,1078.125,0,196210,2276727,254776,?,?,?,211
data_keyboard,10,1,weka.classifiers.trees.M5P,'-M 4.0 -num-decimal-places 4',-6118439039768244417,20260322.182,12566,1397,0.850013,3.011463,56.904007,84.225239,0.547185,0,0,?,?,?,?,?,?,1.162,0.001,1.09375,0,1093.75,0,220252,2276546,254957,?,?,?,238
data_keyboard,10,2,weka.classifiers.trees.M5P,'-M 4.0 -num-decimal-places 4',-6118439039768244417,20260322.182,12566,1397,1.000816,4.915537,60.506487,95.057144,0.352643,0,0,?,?,?,?,?,?,1.332,0.001,1.296875,0,1296.875,0,189426,2276546,254957,?,?,?,203
data_keyboard,10,3,weka.classifiers.trees.M5P,'-M 4.0 -num-decimal-places 4',-6118439039768244417,20260322.182,12566,1397,0.904681,3.956966,55.993623,87.313628,0.48956,0,0,?,?,?,?,?,?,1.289,0.002,1.171875,0,1171.875,0,165074,2276546,254957,?,?,?,175
data_keyboard,10,4,weka.classifiers.trees.M5P,'-M 4.0 -num-decimal-places 4',-6118439039768244417,20260322.182,12567,1396,0.935799,4.00751,57.098793,87.728302,0.483084,0,0,?,?,?,?,?,?,1.14,0.001,1.078125,0,1078.125,0,168980,2276727,254776,?,?,?,180
data_keyboard,10,5,weka.classifiers.trees.M5P,'-M 4.0 -num-decimal-places 4',-6118439039768244417,20260322.182,12567,1396,0.947306,4.979729,56.6045,85.815773,0.54576,0,0,?,?,?,?,?,?,1.348,0.001,1.21875,0,1218.75,0,185798,2276727,254776,?,?,?,199
data_keyboard,10,6,weka.classifiers.trees.M5P,'-M 4.0 -num-decimal-places 4',-6118439039768244417,20260322.182,12567,1396,0.764965,2.012516,55.032847,85.83152,0.594352,0,0,?,?,?,?,?,?,1.058,0,1.015625,0,1015.625,0,171930,2276727,254776,?,?,?,183
data_keyboard,10,7,weka.classifiers.trees.M5P,'-M 4.0 -num-decimal-places 4',-6118439039768244417,20260322.182,12567,1396,1.014934,4.219217,64.30989,94.64087,0.36306,0,0,?,?,?,?,?,?,0.976,0.001,0.96875,0,968.75,0,153784,2276727,254776,?,?,?,162
data_keyboard,10,8,weka.classifiers.trees.M5P,'-M 4.0 -num-decimal-places 4',-6118439039768244417,20260322.182,12567,1396,1.018721,5.586097,59.488669,95.657276,0.291959,0,0,?,?,?,?,?,?,1.113,0.002,1.0625,0,1062.5,0,143204,2276727,254776,?,?,?,150
data_keyboard,10,9,weka.classifiers.trees.M5P,'-M 4.0 -num-decimal-places 4',-6118439039768244417,20260322.182,12567,1396,1.521399,8.368465,69.756481,95.201556,0.31354,0,0,?,?,?,?,?,?,1.201,0.002,1.15625,0,1156.25,0,187666,2276727,254776,?,?,?,201
data_keyboard,10,10,weka.classifiers.trees.M5P,'-M 4.0 -num-decimal-places 4',-6118439039768244417,20260322.182,12567,1396,0.905299,3.244351,57.889993,88.140935,0.483733,0,0,?,?,?,?,?,?,1.191,0.002,1.140625,0,1140.625,0,167432,2276727,254776,?,?,?,178
raw_data_agent,1,1,weka.classifiers.trees.M5P,'-M 4.0 -num-decimal-places 4',-6118439039768244417,20260322.182,10598,1178,0.506887,3.098782,68.630518,95.39793,0.300002,0,0,?,?,?,?,?,?,0.651,0,0.609375,0.015625,609.375,15.625,73190,1156766,129986,?,?,?,88
raw_data_agent,1,2,weka.classifiers.trees.M5P,'-M 4.0 -num-decimal-places 4',-6118439039768244417,20260322.182,10598,1178,0.469894,3.081958,62.877261,94.760348,0.319207,0,0,?,?,?,?,?,?,0.587,0.001,0.5625,0,562.5,0,63860,1156766,129986,?,?,?,75
raw_data_agent,1,3,weka.classifiers.trees.M5P,'-M 4.0 -num-decimal-places 4',-6118439039768244417,20260322.182,10598,1178,0.474159,3.011362,68.009828,95.80369,0.290228,0,0,?,?,?,?,?,?,0.667,0.001,0.609375,0,609.375,0,65276,1156766,129986,?,?,?,77
raw_data_agent,1,4,weka.classifiers.trees.M5P,'-M 4.0 -num-decimal-places 4',-6118439039768244417,20260322.182,10598,1178,0.424021,1.137205,66.348362,82.916482,0.587752,0,0,?,?,?,?,?,?,0.589,0.001,0.546875,0,546.875,0,48670,1156766,129986,?,?,?,54
raw_data_agent,1,5,weka.classifiers.trees.M5P,'-M 4.0 -num-decimal-places 4',-6118439039768244417,20260322.182,10598,1178,0.508695,3.14747,69.456597,97.924933,0.267529,0,0,?,?,?,?,?,?,0.54,0.001,0.46875,0,468.75,0,69592,1156766,129986,?,?,?,83
raw_data_agent,1,6,weka.classifiers.trees.M5P,'-M 4.0 -num-decimal-places 4',-6118439039768244417,20260322.182,10598,1178,0.43724,2.992495,63.17764,95.079216,0.310574,0,0,?,?,?,?,?,?,0.561,0.001,0.53125,0,531.25,0,56572,1156766,129986,?,?,?,65
raw_data_agent,1,7,weka.classifiers.trees.M5P,'-M 4.0 -num-decimal-places 4',-6118439039768244417,20260322.182,10599,1177,0.542938,4.238723,66.314896,97.190118,0.23759,0,0,?,?,?,?,?,?,1.016,0.002,0.625,0,625,0,55284,1156875,129877,?,?,?,63
raw_data_agent,1,8,weka.classifiers.trees.M5P,'-M 4.0 -num-decimal-places 4',-6118439039768244417,20260322.182,10599,1177,0.735827,5.098168,86.218676,98.62033,0.166555,0,0,?,?,?,?,?,?,1.123,0.001,0.8125,0.015625,812.5,15.625,10004,1156875,129877,?,?,?,1
raw_data_agent,1,9,weka.classifiers.trees.M5P,'-M 4.0 -num-decimal-places 4',-6118439039768244417,20260322.182,10599,1177,0.454349,1.329434,66.794937,82.233546,0.57671,0,0,?,?,?,?,?,?,0.66,0.001,0.609375,0,609.375,0,46440,1156875,129877,?,?,?,51
raw_data_agent,1,10,weka.classifiers.trees.M5P,'-M 4.0 -num-decimal-places 4',-6118439039768244417,20260322.182,10599,1177,0.815998,5.191405,88.83235,98.950348,0.144585,0,0,?,?,?,?,?,?,0.689,0.002,0.671875,0,671.875,0,10000,1156875,129877,?,?,?,1
raw_data_agent,2,1,weka.classifiers.trees.M5P,'-M 4.0 -num-decimal-places 4',-6118439039768244417,20260322.182,10598,1178,0.500923,3.066036,70.670767,96.432848,0.27845,0,0,?,?,?,?,?,?,0.832,0.001,0.75,0,750,0,63146,1156766,129986,?,?,?,74
raw_data_agent,2,2,weka.classifiers.trees.M5P,'-M 4.0 -num-decimal-places 4',-6118439039768244417,20260322.182,10598,1178,0.681242,4.236044,85.580253,98.157729,0.191097,0,0,?,?,?,?,?,?,0.835,0.001,0.765625,0,765.625,0,10004,1156766,129986,?,?,?,1
raw_data_agent,2,3,weka.classifiers.trees.M5P,'-M 4.0 -num-decimal-places 4',-6118439039768244417,20260322.182,10598,1178,0.58051,4.232391,68.477297,96.616212,0.256206,0,0,?,?,?,?,?,?,0.808,0.002,0.75,0,750,0,46308,1156766,129986,?,?,?,51
raw_data_agent,2,4,weka.classifiers.trees.M5P,'-M 4.0 -num-decimal-places 4',-6118439039768244417,20260322.182,10598,1178,0.401034,0.947814,62.523018,73.737625,0.688541,0,0,?,?,?,?,?,?,0.777,0.001,0.75,0,750,0,65240,1156766,129986,?,?,?,77
raw_data_agent,2,5,weka.classifiers.trees.M5P,'-M 4.0 -num-decimal-places 4',-6118439039768244417,20260322.182,10598,1178,0.638664,3.197824,85.977367,97.551638,0.217597,0,0,?,?,?,?,?,?,0.709,0.001,0.6875,0,687.5,0,10004,1156766,129986,?,?,?,1
raw_data_agent,2,6,weka.classifiers.trees.M5P,'-M 4.0 -num-decimal-places 4',-6118439039768244417,20260322.182,10598,1178,0.52809,3.118314,70.657909,96.010427,0.281538,0,0,?,?,?,?,?,?,0.66,0,0.609375,0,609.375,0,49260,1156766,129986,?,?,?,55
raw_data_agent,2,7,weka.classifiers.trees.M5P,'-M 4.0 -num-decimal-places 4',-6118439039768244417,20260322.182,10599,1177,0.599639,3.114286,86.348379,97.654482,0.211604,0,0,?,?,?,?,?,?,1.246,0.002,0.84375,0,843.75,0,10004,1156875,129877,?,?,?,1
raw_data_agent,2,8,weka.classifiers.trees.M5P,'-M 4.0 -num-decimal-places 4',-6118439039768244417,20260322.182,10599,1177,0.674778,5.121868,73.160913,97.540333,0.217767,0,0,?,?,?,?,?,?,1.007,0.001,0.75,0.015625,750,15.625,52990,1156875,129877,?,?,?,60
raw_data_agent,2,9,weka.classifiers.trees.M5P,'-M 4.0 -num-decimal-places 4',-6118439039768244417,20260322.182,10599,1177,0.432845,1.270192,65.809831,85.498988,0.570502,0,0,?,?,?,?,?,?,0.707,0.001,0.65625,0,656.25,0,63174,1156875,129877,?,?,?,74
raw_data_agent,2,10,weka.classifiers.trees.M5P,'-M 4.0 -num-decimal-places 4',-6118439039768244417,20260322.182,10599,1177,0.506694,4.153078,66.417303,97.328594,0.229283,0,0,?,?,?,?,?,?,0.635,0.002,0.609375,0,609.375,0,63856,1156875,129877,?,?,?,75
raw_data_agent,3,1,weka.classifiers.trees.M5P,'-M 4.0 -num-decimal-places 4',-6118439039768244417,20260322.182,10598,1178,0.641305,3.149388,81.443139,96.25453,0.272903,0,0,?,?,?,?,?,?,0.642,0.002,0.640625,0,640.625,0,10004,1156766,129986,?,?,?,1
raw_data_agent,3,2,weka.classifiers.trees.M5P,'-M 4.0 -num-decimal-places 4',-6118439039768244417,20260322.182,10598,1178,0.394094,0.956366,62.876117,73.342296,0.694264,0,0,?,?,?,?,?,?,0.668,0.001,0.609375,0,609.375,0,81906,1156766,129986,?,?,?,100
raw_data_agent,3,3,weka.classifiers.trees.M5P,'-M 4.0 -num-decimal-places 4',-6118439039768244417,20260322.182,10598,1178,0.548484,4.19008,67.340423,96.565947,0.259275,0,0,?,?,?,?,?,?,0.693,0.001,0.65625,0,656.25,0,75408,1156766,129986,?,?,?,91
raw_data_agent,3,4,weka.classifiers.trees.M5P,'-M 4.0 -num-decimal-places 4',-6118439039768244417,20260322.182,10598,1178,0.553819,3.163961,73.535343,96.146472,0.279405,0,0,?,?,?,?,?,?,1.077,0.002,0.828125,0,828.125,0,56376,1156766,129986,?,?,?,65
raw_data_agent,3,5,weka.classifiers.trees.M5P,'-M 4.0 -num-decimal-places 4',-6118439039768244417,20260322.182,10598,1178,0.471217,1.395401,71.892711,90.401075,0.506225,0,0,?,?,?,?,?,?,0.839,0.001,0.78125,0,781.25,0,65950,1156766,129986,?,?,?,78
raw_data_agent,3,6,weka.classifiers.trees.M5P,'-M 4.0 -num-decimal-places 4',-6118439039768244417,20260322.182,10598,1178,0.492362,3.089786,66.321675,95.972023,0.283865,0,0,?,?,?,?,?,?,0.704,0.001,0.6875,0,687.5,0,63956,1156766,129986,?,?,?,75
raw_data_agent,3,7,weka.classifiers.trees.M5P,'-M 4.0 -num-decimal-places 4',-6118439039768244417,20260322.182,10599,1177,0.458409,3.041693,64.629658,95.291024,0.304063,0,0,?,?,?,?,?,?,0.903,0.002,0.765625,0,765.625,0,67574,1156875,129877,?,?,?,80
raw_data_agent,3,8,weka.classifiers.trees.M5P,'-M 4.0 -num-decimal-places 4',-6118439039768244417,20260322.182,10599,1177,0.64449,5.143896,71.768165,98.413822,0.183343,0,0,?,?,?,?,?,?,0.897,0.003,0.8125,0,812.5,0,64120,1156875,129877,?,?,?,75
raw_data_agent,3,9,weka.classifiers.trees.M5P,'-M 4.0 -num-decimal-places 4',-6118439039768244417,20260322.182,10599,1177,0.535805,4.145441,70.960167,96.999554,0.242915,0,0,?,?,?,?,?,?,1.176,0.002,0.796875,0,796.875,0,66816,1156875,129877,?,?,?,79
raw_data_agent,3,10,weka.classifiers.trees.M5P,'-M 4.0 -num-decimal-places 4',-6118439039768244417,20260322.182,10599,1177,0.685535,4.23794,88.261849,98.641872,0.161868,0,0,?,?,?,?,?,?,1.438,0.001,1,0,1000,0,10004,1156875,129877,?,?,?,1
raw_data_agent,4,1,weka.classifiers.trees.M5P,'-M 4.0 -num-decimal-places 4',-6118439039768244417,20260322.182,10598,1178,0.547689,3.169734,68.276393,94.978869,0.311706,0,0,?,?,?,?,?,?,1.215,0.003,0.765625,0.015625,765.625,15.625,47824,1156766,129986,?,?,?,53
raw_data_agent,4,2,weka.classifiers.trees.M5P,'-M 4.0 -num-decimal-places 4',-6118439039768244417,20260322.182,10598,1178,0.386656,0.878007,64.561558,71.307491,0.706693,0,0,?,?,?,?,?,?,1.032,0.001,0.8125,0,812.5,0,52296,1156766,129986,?,?,?,59
raw_data_agent,4,3,weka.classifiers.trees.M5P,'-M 4.0 -num-decimal-places 4',-6118439039768244417,20260322.182,10598,1178,0.851222,5.908909,88.652819,99.131182,0.13221,0,0,?,?,?,?,?,?,0.819,0.001,0.78125,0,781.25,0,10004,1156766,129986,?,?,?,1
raw_data_agent,4,4,weka.classifiers.trees.M5P,'-M 4.0 -num-decimal-places 4',-6118439039768244417,20260322.182,10598,1178,0.769057,5.183644,86.076858,98.912565,0.145249,0,0,?,?,?,?,?,?,1.825,0.001,0.71875,0,718.75,0,10004,1156766,129986,?,?,?,1
raw_data_agent,4,5,weka.classifiers.trees.M5P,'-M 4.0 -num-decimal-places 4',-6118439039768244417,20260322.182,10598,1178,0.507064,3.081353,70.218773,94.978201,0.3181,0,0,?,?,?,?,?,?,1.29,0.002,0.921875,0.015625,921.875,15.625,67370,1156766,129986,?,?,?,80
raw_data_agent,4,6,weka.classifiers.trees.M5P,'-M 4.0 -num-decimal-places 4',-6118439039768244417,20260322.182,10598,1178,0.499062,3.098042,66.923427,96.260428,0.285603,0,0,?,?,?,?,?,?,0.928,0.001,0.78125,0,781.25,0,55232,1156766,129986,?,?,?,63
raw_data_agent,4,7,weka.classifiers.trees.M5P,'-M 4.0 -num-decimal-places 4',-6118439039768244417,20260322.182,10599,1177,0.577568,4.218658,68.482481,96.965865,0.242868,0,0,?,?,?,?,?,?,0.861,0.001,0.765625,0,765.625,0,54550,1156875,129877,?,?,?,62
raw_data_agent,4,8,weka.classifiers.trees.M5P,'-M 4.0 -num-decimal-places 4',-6118439039768244417,20260322.182,10599,1177,0.565965,3.005403,86.337863,97.617092,0.216732,0,0,?,?,?,?,?,?,0.79,0.001,0.6875,0,687.5,0,10004,1156875,129877,?,?,?,1
raw_data_agent,4,9,weka.classifiers.trees.M5P,'-M 4.0 -num-decimal-places 4',-6118439039768244417,20260322.182,10599,1177,0.413386,1.180088,65.818372,85.48583,0.558253,0,0,?,?,?,?,?,?,0.649,0.002,0.625,0,625,0,63876,1156875,129877,?,?,?,75
raw_data_agent,4,10,weka.classifiers.trees.M5P,'-M 4.0 -num-decimal-places 4',-6118439039768244417,20260322.1821,10599,1177,0.452362,1.154266,67.46431,78.800925,0.618463,0,0,?,?,?,?,?,?,0.588,0.001,0.546875,0,546.875,0,52172,1156875,129877,?,?,?,59
raw_data_agent,5,1,weka.classifiers.trees.M5P,'-M 4.0 -num-decimal-places 4',-6118439039768244417,20260322.1821,10598,1178,0.554889,3.240949,71.361218,95.114811,0.309961,0,0,?,?,?,?,?,?,0.566,0.001,0.546875,0,546.875,0,85448,1156766,129986,?,?,?,105
raw_data_agent,5,2,weka.classifiers.trees.M5P,'-M 4.0 -num-decimal-places 4',-6118439039768244417,20260322.1821,10598,1178,0.620403,3.076193,83.982338,96.350458,0.26951,0,0,?,?,?,?,?,?,0.564,0.001,0.53125,0,531.25,0,10004,1156766,129986,?,?,?,1
raw_data_agent,5,3,weka.classifiers.trees.M5P,'-M 4.0 -num-decimal-places 4',-6118439039768244417,20260322.1821,10598,1178,0.776087,5.138549,88.091047,98.684565,0.162236,0,0,?,?,?,?,?,?,0.81,0.001,0.703125,0.015625,703.125,15.625,10004,1156766,129986,?,?,?,1
raw_data_agent,5,4,weka.classifiers.trees.M5P,'-M 4.0 -num-decimal-places 4',-6118439039768244417,20260322.1821,10598,1178,0.585979,4.203778,70.430205,96.835253,0.249177,0,0,?,?,?,?,?,?,1.094,0,0.765625,0,765.625,0,51574,1156766,129986,?,?,?,58
raw_data_agent,5,5,weka.classifiers.trees.M5P,'-M 4.0 -num-decimal-places 4',-6118439039768244417,20260322.1821,10598,1178,0.555054,4.178299,69.668249,97.035584,0.241918,0,0,?,?,?,?,?,?,0.743,0.002,0.6875,0,687.5,0,59608,1156766,129986,?,?,?,69
raw_data_agent,5,6,weka.classifiers.trees.M5P,'-M 4.0 -num-decimal-places 4',-6118439039768244417,20260322.1821,10598,1178,0.628115,3.189546,80.403669,96.32207,0.271531,0,0,?,?,?,?,?,?,0.729,0.001,0.6875,0,687.5,0,10004,1156766,129986,?,?,?,1
raw_data_agent,5,7,weka.classifiers.trees.M5P,'-M 4.0 -num-decimal-places 4',-6118439039768244417,20260322.1821,10599,1177,0.645002,4.194189,83.202081,98.286378,0.184128,0,0,?,?,?,?,?,?,1.767,0.003,0.984375,0,984.375,0,10004,1156875,129877,?,?,?,1
raw_data_agent,5,8,weka.classifiers.trees.M5P,'-M 4.0 -num-decimal-places 4',-6118439039768244417,20260322.1821,10599,1177,0.399658,0.941274,65.599546,77.614429,0.65124,0,0,?,?,?,?,?,?,1.332,0.002,0.953125,0,953.125,0,50792,1156875,129877,?,?,?,57
raw_data_agent,5,9,weka.classifiers.trees.M5P,'-M 4.0 -num-decimal-places 4',-6118439039768244417,20260322.1821,10599,1177,0.398958,1.009403,64.829029,75.21293,0.664135,0,0,?,?,?,?,?,?,1.471,0.002,0.84375,0,843.75,0,76226,1156875,129877,?,?,?,92
raw_data_agent,5,10,weka.classifiers.trees.M5P,'-M 4.0 -num-decimal-places 4',-6118439039768244417,20260322.1821,10599,1177,0.470599,3.047931,66.170034,95.314344,0.30274,0,0,?,?,?,?,?,?,0.91,0.002,0.828125,0,828.125,0,61778,1156875,129877,?,?,?,72
raw_data_agent,6,1,weka.classifiers.trees.M5P,'-M 4.0 -num-decimal-places 4',-6118439039768244417,20260322.1821,10598,1178,0.681493,4.276103,87.02413,98.510084,0.171382,0,0,?,?,?,?,?,?,1.08,0.002,0.78125,0,781.25,0,10004,1156766,129986,?,?,?,1
raw_data_agent,6,2,weka.classifiers.trees.M5P,'-M 4.0 -num-decimal-places 4',-6118439039768244417,20260322.1821,10598,1178,0.527827,3.22205,74.721014,102.465659,0.201777,0,0,?,?,?,?,?,?,0.871,0.001,0.765625,0,765.625,0,54370,1156766,129986,?,?,?,62
raw_data_agent,6,3,weka.classifiers.trees.M5P,'-M 4.0 -num-decimal-places 4',-6118439039768244417,20260322.1821,10598,1178,0.480105,3.020903,68.498395,95.661099,0.300057,0,0,?,?,?,?,?,?,0.663,0.002,0.609375,0,609.375,0,73860,1156766,129986,?,?,?,89
raw_data_agent,6,4,weka.classifiers.trees.M5P,'-M 4.0 -num-decimal-places 4',-6118439039768244417,20260322.1821,10598,1178,0.366403,0.870488,60.394685,70.433541,0.715978,0,0,?,?,?,?,?,?,0.651,0,0.625,0,625,0,54418,1156766,129986,?,?,?,62
raw_data_agent,6,5,weka.classifiers.trees.M5P,'-M 4.0 -num-decimal-places 4',-6118439039768244417,20260322.1821,10598,1178,0.456324,1.33427,65.191107,84.982414,0.53839,0,0,?,?,?,?,?,?,0.605,0.002,0.59375,0,593.75,0,56608,1156766,129986,?,?,?,65
raw_data_agent,6,6,weka.classifiers.trees.M5P,'-M 4.0 -num-decimal-places 4',-6118439039768244417,20260322.1821,10598,1178,0.702453,4.228927,88.618967,98.101923,0.194731,0,0,?,?,?,?,?,?,0.56,0.001,0.484375,0,484.375,0,10004,1156766,129986,?,?,?,1
raw_data_agent,6,7,weka.classifiers.trees.M5P,'-M 4.0 -num-decimal-places 4',-6118439039768244417,20260322.1821,10599,1177,0.646703,5.097704,73.074024,97.769657,0.209447,0,0,?,?,?,?,?,?,0.584,0.001,0.5625,0,562.5,0,64606,1156875,129877,?,?,?,76
raw_data_agent,6,8,weka.classifiers.trees.M5P,'-M 4.0 -num-decimal-places 4',-6118439039768244417,20260322.1821,10599,1177,0.519757,3.136396,68.845162,95.90388,0.284373,0,0,?,?,?,?,?,?,0.645,0.001,0.5625,0,562.5,0,50788,1156875,129877,?,?,?,57
raw_data_agent,6,9,weka.classifiers.trees.M5P,'-M 4.0 -num-decimal-places 4',-6118439039768244417,20260322.1821,10599,1177,0.580487,4.2637,69.16733,96.825778,0.25065,0,0,?,?,?,?,?,?,0.731,0.001,0.671875,0,671.875,0,63748,1156875,129877,?,?,?,75
raw_data_agent,6,10,weka.classifiers.trees.M5P,'-M 4.0 -num-decimal-places 4',-6118439039768244417,20260322.1821,10599,1177,0.633433,3.144704,84.448207,97.234778,0.234034,0,0,?,?,?,?,?,?,1.044,0.001,0.890625,0,890.625,0,10004,1156875,129877,?,?,?,1
raw_data_agent,7,1,weka.classifiers.trees.M5P,'-M 4.0 -num-decimal-places 4',-6118439039768244417,20260322.1821,10598,1178,0.471204,3.0468,67.08997,95.034732,0.31111,0,0,?,?,?,?,?,?,0.892,0.002,0.71875,0,718.75,0,42938,1156766,129986,?,?,?,46
raw_data_agent,7,2,weka.classifiers.trees.M5P,'-M 4.0 -num-decimal-places 4',-6118439039768244417,20260322.1821,10598,1178,0.664486,3.199843,86.487672,97.221129,0.233616,0,0,?,?,?,?,?,?,0.792,0.002,0.78125,0,781.25,0,10004,1156766,129986,?,?,?,1
raw_data_agent,7,3,weka.classifiers.trees.M5P,'-M 4.0 -num-decimal-places 4',-6118439039768244417,20260322.1821,10598,1178,0.590245,4.33615,68.153376,97.260302,0.237115,0,0,?,?,?,?,?,?,0.853,0.001,0.78125,0,781.25,0,75540,1156766,129986,?,?,?,91
raw_data_agent,7,4,weka.classifiers.trees.M5P,'-M 4.0 -num-decimal-places 4',-6118439039768244417,20260322.1821,10598,1178,0.607443,3.142253,82.609173,96.805091,0.251164,0,0,?,?,?,?,?,?,0.81,0.001,0.703125,0,703.125,0,10004,1156766,129986,?,?,?,1
raw_data_agent,7,5,weka.classifiers.trees.M5P,'-M 4.0 -num-decimal-places 4',-6118439039768244417,20260322.1821,10598,1178,0.546931,3.090151,72.961555,95.653479,0.29511,0,0,?,?,?,?,?,?,0.804,0.001,0.75,0,750,0,47856,1156766,129986,?,?,?,53
raw_data_agent,7,6,weka.classifiers.trees.M5P,'-M 4.0 -num-decimal-places 4',-6118439039768244417,20260322.1821,10598,1178,0.502361,3.033748,66.504993,93.825201,0.346209,0,0,?,?,?,?,?,?,0.718,0.003,0.703125,0,703.125,0,68204,1156766,129986,?,?,?,81
raw_data_agent,7,7,weka.classifiers.trees.M5P,'-M 4.0 -num-decimal-places 4',-6118439039768244417,20260322.1821,10599,1177,0.78197,5.156778,87.405323,98.754438,0.157373,0,0,?,?,?,?,?,?,0.623,0.001,0.609375,0,609.375,0,10004,1156875,129877,?,?,?,1
raw_data_agent,7,8,weka.classifiers.trees.M5P,'-M 4.0 -num-decimal-places 4',-6118439039768244417,20260322.1821,10599,1177,0.583449,3.029421,88.089372,97.621091,0.217552,0,0,?,?,?,?,?,?,0.63,0.001,0.59375,0,593.75,0,10004,1156875,129877,?,?,?,1
raw_data_agent,7,9,weka.classifiers.trees.M5P,'-M 4.0 -num-decimal-places 4',-6118439039768244417,20260322.1821,10599,1177,0.399574,0.930781,63.903873,73.896296,0.69253,0,0,?,?,?,?,?,?,0.852,0.001,0.796875,0,796.875,0,71586,1156875,129877,?,?,?,86
raw_data_agent,7,10,weka.classifiers.trees.M5P,'-M 4.0 -num-decimal-places 4',-6118439039768244417,20260322.1821,10599,1177,0.522975,4.152382,68.928718,97.590698,0.220225,0,0,?,?,?,?,?,?,0.759,0.001,0.71875,0.015625,718.75,15.625,82916,1156875,129877,?,?,?,101
raw_data_agent,8,1,weka.classifiers.trees.M5P,'-M 4.0 -num-decimal-places 4',-6118439039768244417,20260322.1821,10598,1178,0.486102,3.105972,69.930818,97.553587,0.243397,0,0,?,?,?,?,?,?,0.631,0.004,0.578125,0,578.125,0,50908,1156766,129986,?,?,?,57
raw_data_agent,8,2,weka.classifiers.trees.M5P,'-M 4.0 -num-decimal-places 4',-6118439039768244417,20260322.1821,10598,1178,0.499379,3.08718,69.903952,96.950776,0.261064,0,0,?,?,?,?,?,?,0.56,0.001,0.5625,0,562.5,0,66050,1156766,129986,?,?,?,78
raw_data_agent,8,3,weka.classifiers.trees.M5P,'-M 4.0 -num-decimal-places 4',-6118439039768244417,20260322.1821,10598,1178,0.725245,5.899477,70.146975,97.691532,0.216097,0,0,?,?,?,?,?,?,0.589,0.001,0.5625,0,562.5,0,96478,1156766,129986,?,?,?,120
raw_data_agent,8,4,weka.classifiers.trees.M5P,'-M 4.0 -num-decimal-places 4',-6118439039768244417,20260322.1821,10598,1178,0.61307,3.095809,89.930694,97.966296,0.19618,0,0,?,?,?,?,?,?,0.539,0.001,0.484375,0,484.375,0,10004,1156766,129986,?,?,?,1
raw_data_agent,8,5,weka.classifiers.trees.M5P,'-M 4.0 -num-decimal-places 4',-6118439039768244417,20260322.1821,10598,1178,0.672008,4.205292,85.176062,98.181608,0.190037,0,0,?,?,?,?,?,?,0.58,0.001,0.5625,0,562.5,0,10000,1156766,129986,?,?,?,1
raw_data_agent,8,6,weka.classifiers.trees.M5P,'-M 4.0 -num-decimal-places 4',-6118439039768244417,20260322.1821,10598,1178,0.673577,4.212339,85.516361,98.238163,0.186334,0,0,?,?,?,?,?,?,0.723,0.001,0.671875,0.015625,671.875,15.625,10004,1156766,129986,?,?,?,1
raw_data_agent,8,7,weka.classifiers.trees.M5P,'-M 4.0 -num-decimal-places 4',-6118439039768244417,20260322.1821,10599,1177,0.410104,0.884002,63.02416,71.395922,0.718769,0,0,?,?,?,?,?,?,0.692,0.001,0.609375,0,609.375,0,63724,1156875,129877,?,?,?,75
raw_data_agent,8,8,weka.classifiers.trees.M5P,'-M 4.0 -num-decimal-places 4',-6118439039768244417,20260322.1821,10599,1177,0.703506,4.304822,90.617543,98.837359,0.15311,0,0,?,?,?,?,?,?,0.697,0.001,0.671875,0,671.875,0,10004,1156875,129877,?,?,?,1
raw_data_agent,8,9,weka.classifiers.trees.M5P,'-M 4.0 -num-decimal-places 4',-6118439039768244417,20260322.1821,10599,1177,0.509184,1.433396,72.935373,90.576759,0.50425,0,0,?,?,?,?,?,?,0.514,0.002,0.5,0,500,0,51454,1156875,129877,?,?,?,58
raw_data_agent,8,10,weka.classifiers.trees.M5P,'-M 4.0 -num-decimal-places 4',-6118439039768244417,20260322.1821,10599,1177,0.43124,1.242477,62.291908,78.128936,0.629299,0,0,?,?,?,?,?,?,0.456,0.001,0.421875,0.015625,421.875,15.625,55160,1156875,129877,?,?,?,63
raw_data_agent,9,1,weka.classifiers.trees.M5P,'-M 4.0 -num-decimal-places 4',-6118439039768244417,20260322.1821,10598,1178,0.885652,5.970352,90.087369,99.267473,0.120837,0,0,?,?,?,?,?,?,0.482,0.001,0.421875,0,421.875,0,10004,1156766,129986,?,?,?,1
raw_data_agent,9,2,weka.classifiers.trees.M5P,'-M 4.0 -num-decimal-places 4',-6118439039768244417,20260322.1821,10598,1178,0.394227,0.976734,62.564994,75.716576,0.663547,0,0,?,?,?,?,?,?,0.474,0.001,0.453125,0,453.125,0,74710,1156766,129986,?,?,?,90
raw_data_agent,9,3,weka.classifiers.trees.M5P,'-M 4.0 -num-decimal-places 4',-6118439039768244417,20260322.1821,10598,1178,0.514033,4.158109,65.572379,96.61235,0.25868,0,0,?,?,?,?,?,?,0.513,0.001,0.5,0,500,0,86976,1156766,129986,?,?,?,107
raw_data_agent,9,4,weka.classifiers.trees.M5P,'-M 4.0 -num-decimal-places 4',-6118439039768244417,20260322.1821,10598,1178,0.395189,0.971853,61.368468,77.242513,0.67659,0,0,?,?,?,?,?,?,0.442,0.002,0.390625,0,390.625,0,65894,1156766,129986,?,?,?,78
raw_data_agent,9,5,weka.classifiers.trees.M5P,'-M 4.0 -num-decimal-places 4',-6118439039768244417,20260322.1821,10598,1178,0.565645,4.263339,68.900469,97.660281,0.219066,0,0,?,?,?,?,?,?,0.526,0.001,0.53125,0,531.25,0,71060,1156766,129986,?,?,?,85
raw_data_agent,9,6,weka.classifiers.trees.M5P,'-M 4.0 -num-decimal-places 4',-6118439039768244417,20260322.1821,10598,1178,0.418603,1.043842,63.876985,76.615321,0.660719,0,0,?,?,?,?,?,?,0.677,0.001,0.671875,0,671.875,0,63752,1156766,129986,?,?,?,75
raw_data_agent,9,7,weka.classifiers.trees.M5P,'-M 4.0 -num-decimal-places 4',-6118439039768244417,20260322.1821,10599,1177,0.530886,4.195716,67.370355,97.240297,0.233491,0,0,?,?,?,?,?,?,0.596,0.001,0.578125,0,578.125,0,55958,1156875,129877,?,?,?,64
raw_data_agent,9,8,weka.classifiers.trees.M5P,'-M 4.0 -num-decimal-places 4',-6118439039768244417,20260322.1821,10599,1177,0.439704,1.130751,68.286061,82.029189,0.612319,0,0,?,?,?,?,?,?,0.595,0.001,0.59375,0,593.75,0,67406,1156875,129877,?,?,?,80
raw_data_agent,9,9,weka.classifiers.trees.M5P,'-M 4.0 -num-decimal-places 4',-6118439039768244417,20260322.1821,10599,1177,0.732959,4.330859,87.60351,98.205687,0.189721,0,0,?,?,?,?,?,?,0.66,0.001,0.640625,0,640.625,0,10004,1156875,129877,?,?,?,1
raw_data_agent,9,10,weka.classifiers.trees.M5P,'-M 4.0 -num-decimal-places 4',-6118439039768244417,20260322.1821,10599,1177,0.61741,3.08516,84.529235,96.735818,0.253837,0,0,?,?,?,?,?,?,0.616,0.001,0.625,0,625,0,10004,1156875,129877,?,?,?,1
raw_data_agent,10,1,weka.classifiers.trees.M5P,'-M 4.0 -num-decimal-places 4',-6118439039768244417,20260322.1821,10598,1178,0.556066,4.195097,69.565152,96.571083,0.259999,0,0,?,?,?,?,?,?,0.744,0.001,0.75,0,750,0,76038,1156766,129986,?,?,?,92
raw_data_agent,10,2,weka.classifiers.trees.M5P,'-M 4.0 -num-decimal-places 4',-6118439039768244417,20260322.1821,10598,1178,0.818923,5.156307,87.566623,98.558229,0.169226,0,0,?,?,?,?,?,?,0.614,0.002,0.546875,0,546.875,0,10000,1156766,129986,?,?,?,1
raw_data_agent,10,3,weka.classifiers.trees.M5P,'-M 4.0 -num-decimal-places 4',-6118439039768244417,20260322.1821,10598,1178,0.547225,3.535281,73.966594,109.593775,0.155871,0,0,?,?,?,?,?,?,0.518,0.001,0.515625,0,515.625,0,66146,1156766,129986,?,?,?,78
raw_data_agent,10,4,weka.classifiers.trees.M5P,'-M 4.0 -num-decimal-places 4',-6118439039768244417,20260322.1821,10598,1178,0.62144,4.244374,70.921066,96.509189,0.26298,0,0,?,?,?,?,?,?,0.513,0.002,0.484375,0,484.375,0,48598,1156766,129986,?,?,?,54
raw_data_agent,10,5,weka.classifiers.trees.M5P,'-M 4.0 -num-decimal-places 4',-6118439039768244417,20260322.1821,10598,1178,0.684489,4.27412,85.548081,98.369733,0.179802,0,0,?,?,?,?,?,?,0.545,0.001,0.484375,0,484.375,0,10004,1156766,129986,?,?,?,1
raw_data_agent,10,6,weka.classifiers.trees.M5P,'-M 4.0 -num-decimal-places 4',-6118439039768244417,20260322.1821,10598,1178,0.418718,1.029919,66.766153,82.664868,0.604817,0,0,?,?,?,?,?,?,0.526,0.001,0.5,0.015625,500,15.625,56488,1156766,129986,?,?,?,65
raw_data_agent,10,7,weka.classifiers.trees.M5P,'-M 4.0 -num-decimal-places 4',-6118439039768244417,20260322.1821,10599,1177,0.752666,5.124677,87.101075,98.770668,0.15685,0,0,?,?,?,?,?,?,0.625,0.002,0.59375,0.015625,593.75,15.625,10000,1156875,129877,?,?,?,1
raw_data_agent,10,8,weka.classifiers.trees.M5P,'-M 4.0 -num-decimal-places 4',-6118439039768244417,20260322.1821,10599,1177,0.349916,0.963883,61.056816,85.373445,0.606076,0,0,?,?,?,?,?,?,0.695,0.001,0.640625,0,640.625,0,58308,1156875,129877,?,?,?,67
raw_data_agent,10,9,weka.classifiers.trees.M5P,'-M 4.0 -num-decimal-places 4',-6118439039768244417,20260322.1821,10599,1177,0.413925,1.164723,65.49436,79.41393,0.619717,0,0,?,?,?,?,?,?,0.582,0.002,0.59375,0,593.75,0,76086,1156875,129877,?,?,?,92
raw_data_agent,10,10,weka.classifiers.trees.M5P,'-M 4.0 -num-decimal-places 4',-6118439039768244417,20260322.1821,10599,1177,0.410986,1.216088,61.221781,81.834798,0.585736,0,0,?,?,?,?,?,?,0.5,0.001,0.46875,0,468.75,0,58622,1156875,129877,?,?,?,68
raw_data_keyboard,1,1,weka.classifiers.trees.M5P,'-M 4.0 -num-decimal-places 4',-6118439039768244417,20260322.1821,12566,1397,1.015715,5.155427,61.540433,98.785711,0.204543,0,0,?,?,?,?,?,?,1.057,0.002,0.8125,0,812.5,0,82671,1371281,153860,?,?,?,101
raw_data_keyboard,1,2,weka.classifiers.trees.M5P,'-M 4.0 -num-decimal-places 4',-6118439039768244417,20260322.1821,12566,1397,1.499878,3.530731,98.663286,99.117531,0.13454,0,0,?,?,?,?,?,?,1.386,0.002,1.1875,0.015625,1187.5,15.625,10019,1371281,153860,?,?,?,1
raw_data_keyboard,1,3,weka.classifiers.trees.M5P,'-M 4.0 -num-decimal-places 4',-6118439039768244417,20260322.1821,12566,1397,1.300518,6.594689,71.830585,95.167001,0.308056,0,0,?,?,?,?,?,?,2.027,0.002,1.21875,0,1218.75,0,138443,1371281,153860,?,?,?,177
raw_data_keyboard,1,4,weka.classifiers.trees.M5P,'-M 4.0 -num-decimal-places 4',-6118439039768244417,20260322.1821,12567,1396,1.063507,2.29554,70.790167,90.205213,0.476678,0,0,?,?,?,?,?,?,1.414,0.001,1.265625,0,1265.625,0,139609,1371390,153751,?,?,?,180
raw_data_keyboard,1,5,weka.classifiers.trees.M5P,'-M 4.0 -num-decimal-places 4',-6118439039768244417,20260322.1821,12567,1396,1.764986,5.88974,98.728157,99.369939,0.114621,0,0,?,?,?,?,?,?,1.216,0.001,0.953125,0.015625,953.125,15.625,10019,1371390,153751,?,?,?,1
raw_data_keyboard,1,6,weka.classifiers.trees.M5P,'-M 4.0 -num-decimal-places 4',-6118439039768244417,20260322.1821,12567,1396,0.84599,4.105534,55.551027,93.764483,0.359669,0,0,?,?,?,?,?,?,0.823,0.001,0.71875,0.015625,718.75,15.625,140541,1371390,153751,?,?,?,180
raw_data_keyboard,1,7,weka.classifiers.trees.M5P,'-M 4.0 -num-decimal-places 4',-6118439039768244417,20260322.1821,12567,1396,1.098899,4.542878,66.211803,100.844832,0.229189,0,0,?,?,?,?,?,?,0.75,0.001,0.734375,0,734.375,0,134133,1371390,153751,?,?,?,172
raw_data_keyboard,1,8,weka.classifiers.trees.M5P,'-M 4.0 -num-decimal-places 4',-6118439039768244417,20260322.1821,12567,1396,1.082985,4.983252,65.549412,95.053166,0.311913,0,0,?,?,?,?,?,?,0.789,0.001,0.796875,0,796.875,0,117599,1371390,153751,?,?,?,149
raw_data_keyboard,1,9,weka.classifiers.trees.M5P,'-M 4.0 -num-decimal-places 4',-6118439039768244417,20260322.1821,12567,1396,1.097394,5.005601,67.145192,96.017575,0.279817,0,0,?,?,?,?,?,?,0.823,0.001,0.75,0,750,0,102401,1371390,153751,?,?,?,128
raw_data_keyboard,1,10,weka.classifiers.trees.M5P,'-M 4.0 -num-decimal-places 4',-6118439039768244417,20260322.1821,12567,1396,1.735139,6.405601,98.387837,99.743888,0.072862,0,0,?,?,?,?,?,?,0.787,0.001,0.765625,0,765.625,0,10019,1371390,153751,?,?,?,1
raw_data_keyboard,2,1,weka.classifiers.trees.M5P,'-M 4.0 -num-decimal-places 4',-6118439039768244417,20260322.1821,12566,1397,1.033775,4.234578,66.805096,94.663136,0.341048,0,0,?,?,?,?,?,?,0.936,0.002,0.859375,0,859.375,0,116247,1371281,153860,?,?,?,147
raw_data_keyboard,2,2,weka.classifiers.trees.M5P,'-M 4.0 -num-decimal-places 4',-6118439039768244417,20260322.1821,12566,1397,0.874787,1.943512,59.787002,80.080595,0.621011,0,0,?,?,?,?,?,?,1.041,0.001,0.875,0.015625,875,15.625,131781,1371281,153860,?,?,?,168
raw_data_keyboard,2,3,weka.classifiers.trees.M5P,'-M 4.0 -num-decimal-places 4',-6118439039768244417,20260322.1821,12566,1397,1.235619,6.226699,70.096662,97.283679,0.235476,0,0,?,?,?,?,?,?,0.935,0.001,0.890625,0,890.625,0,122681,1371281,153860,?,?,?,156
raw_data_keyboard,2,4,weka.classifiers.trees.M5P,'-M 4.0 -num-decimal-places 4',-6118439039768244417,20260322.1821,12567,1396,1.089155,3.780657,71.413428,104.783223,0.257255,0,0,?,?,?,?,?,?,0.885,0.001,0.84375,0,843.75,0,81383,1371390,153751,?,?,?,99
raw_data_keyboard,2,5,weka.classifiers.trees.M5P,'-M 4.0 -num-decimal-places 4',-6118439039768244417,20260322.1822,12567,1396,0.9936,5.630505,58.776242,96.504779,0.265946,0,0,?,?,?,?,?,?,0.889,0.002,0.8125,0,812.5,0,126675,1371390,153751,?,?,?,161
raw_data_keyboard,2,6,weka.classifiers.trees.M5P,'-M 4.0 -num-decimal-places 4',-6118439039768244417,20260322.1822,12567,1396,0.98245,3.288401,62.520323,89.395928,0.450261,0,0,?,?,?,?,?,?,0.921,0.002,0.84375,0,843.75,0,135207,1371390,153751,?,?,?,173
raw_data_keyboard,2,7,weka.classifiers.trees.M5P,'-M 4.0 -num-decimal-places 4',-6118439039768244417,20260322.1822,12567,1396,1.04431,4.460451,63.655333,98.330116,0.24073,0,0,?,?,?,?,?,?,0.879,0.001,0.828125,0,828.125,0,132809,1371390,153751,?,?,?,170
raw_data_keyboard,2,8,weka.classifiers.trees.M5P,'-M 4.0 -num-decimal-places 4',-6118439039768244417,20260322.1822,12567,1396,1.031873,5.621689,58.092147,95.615513,0.293508,0,0,?,?,?,?,?,?,0.571,0.001,0.5625,0,562.5,0,132467,1371390,153751,?,?,?,169
raw_data_keyboard,2,9,weka.classifiers.trees.M5P,'-M 4.0 -num-decimal-places 4',-6118439039768244417,20260322.1822,12567,1396,1.153045,6.021591,64.304127,101.69764,0.194209,0,0,?,?,?,?,?,?,0.486,0.002,0.46875,0,468.75,0,133751,1371390,153751,?,?,?,171
raw_data_keyboard,2,10,weka.classifiers.trees.M5P,'-M 4.0 -num-decimal-places 4',-6118439039768244417,20260322.1822,12567,1396,1.163032,6.81528,67.133861,99.154875,0.149626,0,0,?,?,?,?,?,?,0.538,0.002,0.46875,0,468.75,0,131193,1371390,153751,?,?,?,168
raw_data_keyboard,3,1,weka.classifiers.trees.M5P,'-M 4.0 -num-decimal-places 4',-6118439039768244417,20260322.1822,12566,1397,1.070239,4.998465,66.748619,96.201107,0.276672,0,0,?,?,?,?,?,?,0.599,0.001,0.546875,0,546.875,0,134145,1371281,153860,?,?,?,172
raw_data_keyboard,3,2,weka.classifiers.trees.M5P,'-M 4.0 -num-decimal-places 4',-6118439039768244417,20260322.1822,12566,1397,1.683625,5.254745,99.484783,99.602524,0.090956,0,0,?,?,?,?,?,?,0.683,0.001,0.640625,0,640.625,0,10019,1371281,153860,?,?,?,1
raw_data_keyboard,3,3,weka.classifiers.trees.M5P,'-M 4.0 -num-decimal-places 4',-6118439039768244417,20260322.1822,12566,1397,1.047768,4.510559,61.635884,97.332986,0.257135,0,0,?,?,?,?,?,?,0.749,0.003,0.6875,0,687.5,0,129681,1371281,153860,?,?,?,166
raw_data_keyboard,3,4,weka.classifiers.trees.M5P,'-M 4.0 -num-decimal-places 4',-6118439039768244417,20260322.1822,12567,1396,1.118481,6.056614,65.682632,103.664329,0.204945,0,0,?,?,?,?,?,?,0.495,0.001,0.484375,0,484.375,0,156061,1371390,153751,?,?,?,202
raw_data_keyboard,3,5,weka.classifiers.trees.M5P,'-M 4.0 -num-decimal-places 4',-6118439039768244417,20260322.1822,12567,1396,0.972916,3.481304,61.560353,95.318849,0.358481,0,0,?,?,?,?,?,?,0.489,0.001,0.453125,0,453.125,0,98943,1371390,153751,?,?,?,123
raw_data_keyboard,3,6,weka.classifiers.trees.M5P,'-M 4.0 -num-decimal-places 4',-6118439039768244417,20260322.1822,12567,1396,1.278669,7.340216,66.919633,98.634137,0.170394,0,0,?,?,?,?,?,?,0.574,0.001,0.515625,0,515.625,0,122175,1371390,153751,?,?,?,155
raw_data_keyboard,3,7,weka.classifiers.trees.M5P,'-M 4.0 -num-decimal-places 4',-6118439039768244417,20260322.1822,12567,1396,0.917264,3.296038,58.628254,90.069289,0.436221,0,0,?,?,?,?,?,?,0.611,0.001,0.59375,0,593.75,0,129199,1371390,153751,?,?,?,165
raw_data_keyboard,3,8,weka.classifiers.trees.M5P,'-M 4.0 -num-decimal-places 4',-6118439039768244417,20260322.1822,12567,1396,0.864078,3.13793,60.174998,91.333234,0.416318,0,0,?,?,?,?,?,?,0.578,0.002,0.546875,0,546.875,0,108213,1371390,153751,?,?,?,136
raw_data_keyboard,3,9,weka.classifiers.trees.M5P,'-M 4.0 -num-decimal-places 4',-6118439039768244417,20260322.1822,12567,1396,0.933561,4.176114,60.299601,95.173807,0.320009,0,0,?,?,?,?,?,?,0.524,0,0.484375,0,484.375,0,135805,1371390,153751,?,?,?,174
raw_data_keyboard,3,10,weka.classifiers.trees.M5P,'-M 4.0 -num-decimal-places 4',-6118439039768244417,20260322.1822,12567,1396,1.131928,6.127814,64.175114,95.351266,0.301953,0,0,?,?,?,?,?,?,0.648,0.001,0.53125,0,531.25,0,167829,1371390,153751,?,?,?,218
raw_data_keyboard,4,1,weka.classifiers.trees.M5P,'-M 4.0 -num-decimal-places 4',-6118439039768244417,20260322.1822,12566,1397,1.627255,4.52865,98.503565,99.201281,0.127073,0,0,?,?,?,?,?,?,0.588,0.001,0.578125,0,578.125,0,10019,1371281,153860,?,?,?,1
raw_data_keyboard,4,2,weka.classifiers.trees.M5P,'-M 4.0 -num-decimal-places 4',-6118439039768244417,20260322.1822,12566,1397,1.011228,4.266081,63.958157,95.389613,0.309336,0,0,?,?,?,?,?,?,0.549,0.001,0.53125,0,531.25,0,153755,1371281,153860,?,?,?,199
raw_data_keyboard,4,3,weka.classifiers.trees.M5P,'-M 4.0 -num-decimal-places 4',-6118439039768244417,20260322.1822,12566,1397,1.066086,5.587407,63.894528,96.310726,0.269721,0,0,?,?,?,?,?,?,0.948,0.001,0.9375,0,937.5,0,132015,1371281,153860,?,?,?,169
raw_data_keyboard,4,4,weka.classifiers.trees.M5P,'-M 4.0 -num-decimal-places 4',-6118439039768244417,20260322.1822,12567,1396,0.815057,1.769429,58.404432,77.406141,0.640406,0,0,?,?,?,?,?,?,1.207,0.002,1.03125,0,1031.25,0,123679,1371390,153751,?,?,?,157
raw_data_keyboard,4,5,weka.classifiers.trees.M5P,'-M 4.0 -num-decimal-places 4',-6118439039768244417,20260322.1822,12567,1396,1.127607,4.248655,72.427907,116.466196,0.186153,0,0,?,?,?,?,?,?,1.025,0.002,0.875,0,875,0,123643,1371390,153751,?,?,?,157
raw_data_keyboard,4,6,weka.classifiers.trees.M5P,'-M 4.0 -num-decimal-places 4',-6118439039768244417,20260322.1822,12567,1396,1.5572,5.148652,98.066163,99.198506,0.127698,0,0,?,?,?,?,?,?,1.405,0.001,1.09375,0,1093.75,0,10019,1371390,153751,?,?,?,1
raw_data_keyboard,4,7,weka.classifiers.trees.M5P,'-M 4.0 -num-decimal-places 4',-6118439039768244417,20260322.1822,12567,1396,1.026174,4.253344,62.621903,94.040254,0.342156,0,0,?,?,?,?,?,?,1.23,0.071,1.0625,0,1062.5,0,83795,1371390,153751,?,?,?,103
raw_data_keyboard,4,8,weka.classifiers.trees.M5P,'-M 4.0 -num-decimal-places 4',-6118439039768244417,20260322.1822,12567,1396,1.18242,6.383461,64.69183,98.912226,0.169172,0,0,?,?,?,?,?,?,1.437,0.002,1.21875,0,1218.75,0,131975,1371390,153751,?,?,?,169
raw_data_keyboard,4,9,weka.classifiers.trees.M5P,'-M 4.0 -num-decimal-places 4',-6118439039768244417,20260322.1822,12567,1396,1.137426,4.83088,70.357293,93.085031,0.364774,0,0,?,?,?,?,?,?,1.075,0.002,0.9375,0,937.5,0,125973,1371390,153751,?,?,?,160
raw_data_keyboard,4,10,weka.classifiers.trees.M5P,'-M 4.0 -num-decimal-places 4',-6118439039768244417,20260322.1822,12567,1396,1.35294,7.302177,68.386314,97.675517,0.247066,0,0,?,?,?,?,?,?,1.031,0.001,0.921875,0,921.875,0,109119,1371390,153751,?,?,?,137
raw_data_keyboard,5,1,weka.classifiers.trees.M5P,'-M 4.0 -num-decimal-places 4',-6118439039768244417,20260322.1822,12566,1397,1.121562,6.286871,64.195817,97.724953,0.22722,0,0,?,?,?,?,?,?,0.938,0.001,0.921875,0.015625,921.875,15.625,117181,1371281,153860,?,?,?,148
raw_data_keyboard,5,2,weka.classifiers.trees.M5P,'-M 4.0 -num-decimal-places 4',-6118439039768244417,20260322.1822,12566,1397,0.935223,4.095889,59.431189,92.378988,0.383,0,0,?,?,?,?,?,?,2.095,0.003,1.296875,0,1296.875,0,126299,1371281,153860,?,?,?,161
raw_data_keyboard,5,3,weka.classifiers.trees.M5P,'-M 4.0 -num-decimal-places 4',-6118439039768244417,20260322.1822,12566,1397,1.043081,4.877837,61.166345,93.422298,0.356027,0,0,?,?,?,?,?,?,1.456,0.001,1.09375,0,1093.75,0,174533,1371281,153860,?,?,?,228
raw_data_keyboard,5,4,weka.classifiers.trees.M5P,'-M 4.0 -num-decimal-places 4',-6118439039768244417,20260322.1822,12567,1396,1.534058,4.416709,98.374822,99.46242,0.106192,0,0,?,?,?,?,?,?,0.879,0.002,0.8125,0,812.5,0,10019,1371390,153751,?,?,?,1
raw_data_keyboard,5,5,weka.classifiers.trees.M5P,'-M 4.0 -num-decimal-places 4',-6118439039768244417,20260322.1822,12567,1396,1.026739,3.462204,65.732004,94.105916,0.360975,0,0,?,?,?,?,?,?,0.789,0.001,0.765625,0.015625,765.625,15.625,135801,1371390,153751,?,?,?,174
raw_data_keyboard,5,6,weka.classifiers.trees.M5P,'-M 4.0 -num-decimal-places 4',-6118439039768244417,20260322.1822,12567,1396,0.998058,4.182515,64.873812,94.604595,0.326564,0,0,?,?,?,?,?,?,0.835,0.001,0.78125,0,781.25,0,133383,1371390,153751,?,?,?,171
raw_data_keyboard,5,7,weka.classifiers.trees.M5P,'-M 4.0 -num-decimal-places 4',-6118439039768244417,20260322.1822,12567,1396,1.827903,6.467052,98.227916,99.601428,0.088328,0,0,?,?,?,?,?,?,0.769,0.001,0.765625,0,765.625,0,10019,1371390,153751,?,?,?,1
raw_data_keyboard,5,8,weka.classifiers.trees.M5P,'-M 4.0 -num-decimal-places 4',-6118439039768244417,20260322.1822,12567,1396,1.138446,5.025698,67.656429,95.794157,0.290552,0,0,?,?,?,?,?,?,0.774,0.001,0.765625,0,765.625,0,131811,1371390,153751,?,?,?,169
raw_data_keyboard,5,9,weka.classifiers.trees.M5P,'-M 4.0 -num-decimal-places 4',-6118439039768244417,20260322.1822,12567,1396,1.050885,4.331444,67.628014,97.470097,0.246707,0,0,?,?,?,?,?,?,0.813,0.001,0.734375,0,734.375,0,117663,1371390,153751,?,?,?,149
raw_data_keyboard,5,10,weka.classifiers.trees.M5P,'-M 4.0 -num-decimal-places 4',-6118439039768244417,20260322.1822,12567,1396,1.053434,5.626736,61.224888,95.989296,0.300127,0,0,?,?,?,?,?,?,0.927,0.001,0.859375,0,859.375,0,128347,1371390,153751,?,?,?,163
raw_data_keyboard,6,1,weka.classifiers.trees.M5P,'-M 4.0 -num-decimal-places 4',-6118439039768244417,20260322.1822,12566,1397,0.939504,4.334926,63.763279,99.729306,0.189107,0,0,?,?,?,?,?,?,0.892,0.001,0.875,0,875,0,105995,1371281,153860,?,?,?,133
raw_data_keyboard,6,2,weka.classifiers.trees.M5P,'-M 4.0 -num-decimal-places 4',-6118439039768244417,20260322.1822,12566,1397,0.892124,2.026862,61.298017,82.637079,0.580079,0,0,?,?,?,?,?,?,0.854,0.001,0.796875,0,796.875,0,150141,1371281,153860,?,?,?,194
raw_data_keyboard,6,3,weka.classifiers.trees.M5P,'-M 4.0 -num-decimal-places 4',-6118439039768244417,20260322.1822,12566,1397,1.004493,5.483493,59.299456,93.809853,0.347138,0,0,?,?,?,?,?,?,0.838,0.001,0.84375,0,843.75,0,160653,1371281,153860,?,?,?,208
raw_data_keyboard,6,4,weka.classifiers.trees.M5P,'-M 4.0 -num-decimal-places 4',-6118439039768244417,20260322.1822,12567,1396,1.737114,5.877948,98.689408,99.76136,0.074585,0,0,?,?,?,?,?,?,1.037,0.001,0.984375,0,984.375,0,10019,1371390,153751,?,?,?,1
raw_data_keyboard,6,5,weka.classifiers.trees.M5P,'-M 4.0 -num-decimal-places 4',-6118439039768244417,20260322.1822,12567,1396,1.145733,5.594222,66.336909,95.96147,0.279562,0,0,?,?,?,?,?,?,0.917,0.002,0.78125,0,781.25,0,139725,1371390,153751,?,?,?,180
raw_data_keyboard,6,6,weka.classifiers.trees.M5P,'-M 4.0 -num-decimal-places 4',-6118439039768244417,20260322.1822,12567,1396,1.125459,6.294283,66.493053,107.699264,0.042972,0,0,?,?,?,?,?,?,0.991,0.001,0.953125,0.015625,953.125,15.625,124053,1371390,153751,?,?,?,158
raw_data_keyboard,6,7,weka.classifiers.trees.M5P,'-M 4.0 -num-decimal-places 4',-6118439039768244417,20260322.1822,12567,1396,1.146884,5.672524,64.903774,96.067195,0.278446,0,0,?,?,?,?,?,?,0.924,0.002,0.875,0,875,0,167629,1371390,153751,?,?,?,218
raw_data_keyboard,6,8,weka.classifiers.trees.M5P,'-M 4.0 -num-decimal-places 4',-6118439039768244417,20260322.1822,12567,1396,1.166727,5.366792,71.651712,103.061196,0.188971,0,0,?,?,?,?,?,?,0.862,0.002,0.75,0.015625,750,15.625,113223,1371390,153751,?,?,?,143
raw_data_keyboard,6,9,weka.classifiers.trees.M5P,'-M 4.0 -num-decimal-places 4',-6118439039768244417,20260322.1822,12567,1396,0.915175,4.013978,57.681155,90.361828,0.428456,0,0,?,?,?,?,?,?,0.888,0.001,0.828125,0,828.125,0,129519,1371390,153751,?,?,?,165
raw_data_keyboard,6,10,weka.classifiers.trees.M5P,'-M 4.0 -num-decimal-places 4',-6118439039768244417,20260322.1822,12567,1396,1.039037,4.241406,60.376383,91.935789,0.393781,0,0,?,?,?,?,?,?,0.718,0.002,0.71875,0,718.75,0,133403,1371390,153751,?,?,?,171
raw_data_keyboard,7,1,weka.classifiers.trees.M5P,'-M 4.0 -num-decimal-places 4',-6118439039768244417,20260322.1822,12566,1397,1.608791,4.512609,98.850365,99.35881,0.113318,0,0,?,?,?,?,?,?,0.748,0.001,0.671875,0,671.875,0,10019,1371281,153860,?,?,?,1
raw_data_keyboard,7,2,weka.classifiers.trees.M5P,'-M 4.0 -num-decimal-places 4',-6118439039768244417,20260322.1822,12566,1397,1.266082,6.715228,70.605376,97.253574,0.232489,0,0,?,?,?,?,?,?,0.964,0.002,0.875,0,875,0,54425,1371281,153860,?,?,?,62
raw_data_keyboard,7,3,weka.classifiers.trees.M5P,'-M 4.0 -num-decimal-places 4',-6118439039768244417,20260322.1822,12566,1397,0.842796,3.39934,54.941685,94.492892,0.378509,0,0,?,?,?,?,?,?,0.82,0.001,0.8125,0,812.5,0,109531,1371281,153860,?,?,?,137
raw_data_keyboard,7,4,weka.classifiers.trees.M5P,'-M 4.0 -num-decimal-places 4',-6118439039768244417,20260322.1822,12567,1396,1.335001,7.439439,66.952622,98.640992,0.178867,0,0,?,?,?,?,?,?,0.924,0.001,0.75,0,750,0,121401,1371390,153751,?,?,?,154
raw_data_keyboard,7,5,weka.classifiers.trees.M5P,'-M 4.0 -num-decimal-places 4',-6118439039768244417,20260322.1822,12567,1396,0.953434,4.210373,59.808088,93.787386,0.351322,0,0,?,?,?,?,?,?,0.811,0.002,0.78125,0,781.25,0,114185,1371390,153751,?,?,?,144
raw_data_keyboard,7,6,weka.classifiers.trees.M5P,'-M 4.0 -num-decimal-places 4',-6118439039768244417,20260322.1822,12567,1396,1.013461,5.182782,62.503254,99.93734,0.178323,0,0,?,?,?,?,?,?,1.089,0.002,1.078125,0,1078.125,0,115541,1371390,153751,?,?,?,146
raw_data_keyboard,7,7,weka.classifiers.trees.M5P,'-M 4.0 -num-decimal-places 4',-6118439039768244417,20260322.1822,12567,1396,1.152453,5.745953,66.284647,108.491942,0.151713,0,0,?,?,?,?,?,?,0.899,0.001,0.875,0,875,0,156939,1371390,153751,?,?,?,203
raw_data_keyboard,7,8,weka.classifiers.trees.M5P,'-M 4.0 -num-decimal-places 4',-6118439039768244417,20260322.1822,12567,1396,0.889491,3.177006,62.035949,92.129491,0.401452,0,0,?,?,?,?,?,?,1.011,0.002,0.953125,0,953.125,0,146619,1371390,153751,?,?,?,189
raw_data_keyboard,7,9,weka.classifiers.trees.M5P,'-M 4.0 -num-decimal-places 4',-6118439039768244417,20260322.1822,12567,1396,1.096605,5.021445,64.718717,95.7698,0.289706,0,0,?,?,?,?,?,?,0.861,0.002,0.8125,0.015625,812.5,15.625,87489,1371390,153751,?,?,?,108
raw_data_keyboard,7,10,weka.classifiers.trees.M5P,'-M 4.0 -num-decimal-places 4',-6118439039768244417,20260322.1822,12567,1396,0.933384,3.18281,63.467309,90.781237,0.439991,0,0,?,?,?,?,?,?,0.799,0.002,0.796875,0,796.875,0,171613,1371390,153751,?,?,?,224
raw_data_keyboard,8,1,weka.classifiers.trees.M5P,'-M 4.0 -num-decimal-places 4',-6118439039768244417,20260322.1822,12566,1397,1.02503,4.875879,62.917873,95.012353,0.316061,0,0,?,?,?,?,?,?,0.801,0.002,0.765625,0,765.625,0,109099,1371281,153860,?,?,?,137
raw_data_keyboard,8,2,weka.classifiers.trees.M5P,'-M 4.0 -num-decimal-places 4',-6118439039768244417,20260322.1822,12566,1397,1.091111,3.499199,70.122631,94.890893,0.33695,0,0,?,?,?,?,?,?,0.947,0.002,0.875,0,875,0,115237,1371281,153860,?,?,?,146
raw_data_keyboard,8,3,weka.classifiers.trees.M5P,'-M 4.0 -num-decimal-places 4',-6118439039768244417,20260322.1822,12566,1397,1.118181,5.998914,60.871431,92.690609,0.380326,0,0,?,?,?,?,?,?,0.911,0.004,0.796875,0.015625,796.875,15.625,170805,1371281,153860,?,?,?,222
raw_data_keyboard,8,4,weka.classifiers.trees.M5P,'-M 4.0 -num-decimal-places 4',-6118439039768244417,20260322.1822,12567,1396,1.105039,6.35814,63.245331,99.063082,0.16894,0,0,?,?,?,?,?,?,0.957,0.001,0.90625,0,906.25,0,112965,1371390,153751,?,?,?,142
raw_data_keyboard,8,5,weka.classifiers.trees.M5P,'-M 4.0 -num-decimal-places 4',-6118439039768244417,20260322.1822,12567,1396,1.051115,5.638332,59.156622,95.674291,0.291898,0,0,?,?,?,?,?,?,1.114,0.002,1,0,1000,0,94157,1371390,153751,?,?,?,116
raw_data_keyboard,8,6,weka.classifiers.trees.M5P,'-M 4.0 -num-decimal-places 4',-6118439039768244417,20260322.1822,12567,1396,0.98932,3.361791,61.607643,90.513382,0.426975,0,0,?,?,?,?,?,?,1.132,0.002,1,0,1000,0,119737,1371390,153751,?,?,?,152
raw_data_keyboard,8,7,weka.classifiers.trees.M5P,'-M 4.0 -num-decimal-places 4',-6118439039768244417,20260322.1822,12567,1396,0.924936,4.773817,58.025198,93.60158,0.353351,0,0,?,?,?,?,?,?,1.196,0.002,1.140625,0,1140.625,0,146669,1371390,153751,?,?,?,188
raw_data_keyboard,8,8,weka.classifiers.trees.M5P,'-M 4.0 -num-decimal-places 4',-6118439039768244417,20260322.1822,12567,1396,1.06981,4.251404,68.128694,94.779971,0.324058,0,0,?,?,?,?,?,?,1.189,0.001,1,0,1000,0,132155,1371390,153751,?,?,?,169
raw_data_keyboard,8,9,weka.classifiers.trees.M5P,'-M 4.0 -num-decimal-places 4',-6118439039768244417,20260322.1822,12567,1396,1.051508,5.100356,65.282123,98.189163,0.222607,0,0,?,?,?,?,?,?,1.162,0.002,1.015625,0,1015.625,0,102101,1371390,153751,?,?,?,128
raw_data_keyboard,8,10,weka.classifiers.trees.M5P,'-M 4.0 -num-decimal-places 4',-6118439039768244417,20260322.1823,12567,1396,1.558162,4.48014,98.927436,99.624776,0.09286,0,0,?,?,?,?,?,?,1.149,0.002,1,0,1000,0,10019,1371390,153751,?,?,?,1
raw_data_keyboard,9,1,weka.classifiers.trees.M5P,'-M 4.0 -num-decimal-places 4',-6118439039768244417,20260322.1823,12566,1397,1.038246,4.309328,63.891686,94.864938,0.335425,0,0,?,?,?,?,?,?,1.124,0.001,1,0,1000,0,134129,1371281,153860,?,?,?,172
raw_data_keyboard,9,2,weka.classifiers.trees.M5P,'-M 4.0 -num-decimal-places 4',-6118439039768244417,20260322.1823,12566,1397,0.992294,3.929828,70.288368,113.231921,0.191382,0,0,?,?,?,?,?,?,1.096,0.001,0.890625,0,890.625,0,137121,1371281,153860,?,?,?,176
raw_data_keyboard,9,3,weka.classifiers.trees.M5P,'-M 4.0 -num-decimal-places 4',-6118439039768244417,20260322.1823,12566,1397,1.683132,5.836819,99.166244,99.866188,0.063162,0,0,?,?,?,?,?,?,1.18,0.002,1.015625,0,1015.625,0,10019,1371281,153860,?,?,?,1
raw_data_keyboard,9,4,weka.classifiers.trees.M5P,'-M 4.0 -num-decimal-places 4',-6118439039768244417,20260322.1823,12567,1396,0.924,3.269087,61.122365,91.069502,0.415244,0,0,?,?,?,?,?,?,1.89,0.002,1.28125,0,1281.25,0,132059,1371390,153751,?,?,?,169
raw_data_keyboard,9,5,weka.classifiers.trees.M5P,'-M 4.0 -num-decimal-places 4',-6118439039768244417,20260322.1823,12567,1396,1.180026,6.700287,67.184493,97.153563,0.239119,0,0,?,?,?,?,?,?,1.23,0.002,1.03125,0,1031.25,0,155411,1371390,153751,?,?,?,201
raw_data_keyboard,9,6,weka.classifiers.trees.M5P,'-M 4.0 -num-decimal-places 4',-6118439039768244417,20260322.1823,12567,1396,1.230858,6.233938,68.099642,96.594389,0.28388,0,0,?,?,?,?,?,?,1.118,0.002,0.921875,0,921.875,0,119113,1371390,153751,?,?,?,150
raw_data_keyboard,9,7,weka.classifiers.trees.M5P,'-M 4.0 -num-decimal-places 4',-6118439039768244417,20260322.1823,12567,1396,1.001149,4.266481,61.396945,94.248867,0.339678,0,0,?,?,?,?,?,?,1.302,0.003,1.125,0.015625,1125,15.625,139977,1371390,153751,?,?,?,180
raw_data_keyboard,9,8,weka.classifiers.trees.M5P,'-M 4.0 -num-decimal-places 4',-6118439039768244417,20260322.1823,12567,1396,0.965389,4.176046,63.37564,94.935422,0.318555,0,0,?,?,?,?,?,?,1.232,0.003,1.109375,0.015625,1109.375,15.625,122517,1371390,153751,?,?,?,156
raw_data_keyboard,9,9,weka.classifiers.trees.M5P,'-M 4.0 -num-decimal-places 4',-6118439039768244417,20260322.1823,12567,1396,1.074843,5.210807,60.507569,97.700559,0.232178,0,0,?,?,?,?,?,?,1.27,0.002,1,0.015625,1000,15.625,143245,1371390,153751,?,?,?,184
raw_data_keyboard,9,10,weka.classifiers.trees.M5P,'-M 4.0 -num-decimal-places 4',-6118439039768244417,20260322.1823,12567,1396,1.208595,5.02254,68.603897,95.455475,0.298941,0,0,?,?,?,?,?,?,1.086,0.002,0.953125,0,953.125,0,108033,1371390,153751,?,?,?,136
raw_data_keyboard,10,1,weka.classifiers.trees.M5P,'-M 4.0 -num-decimal-places 4',-6118439039768244417,20260322.1823,12566,1397,0.947844,3.633061,63.453317,101.610226,0.203424,0,0,?,?,?,?,?,?,1.297,0.002,1.03125,0,1031.25,0,127021,1371281,153860,?,?,?,162
raw_data_keyboard,10,2,weka.classifiers.trees.M5P,'-M 4.0 -num-decimal-places 4',-6118439039768244417,20260322.1823,12566,1397,1.089288,5.015787,65.855226,96.995773,0.287406,0,0,?,?,?,?,?,?,1.164,0.002,0.921875,0,921.875,0,100041,1371281,153860,?,?,?,124
raw_data_keyboard,10,3,weka.classifiers.trees.M5P,'-M 4.0 -num-decimal-places 4',-6118439039768244417,20260322.1823,12566,1397,1.05737,4.307999,65.44403,95.059448,0.31562,0,0,?,?,?,?,?,?,1.216,0.002,1.03125,0,1031.25,0,134113,1371281,153860,?,?,?,172
raw_data_keyboard,10,4,weka.classifiers.trees.M5P,'-M 4.0 -num-decimal-places 4',-6118439039768244417,20260322.1823,12567,1396,0.990705,4.13422,60.448938,90.502109,0.425397,0,0,?,?,?,?,?,?,1.208,0.001,1,0,1000,0,159867,1371390,153751,?,?,?,207
raw_data_keyboard,10,5,weka.classifiers.trees.M5P,'-M 4.0 -num-decimal-places 4',-6118439039768244417,20260322.1823,12567,1396,1.157897,8.340881,69.187986,143.738582,-0.311025,0,0,?,?,?,?,?,?,1.18,0.001,1,0,1000,0,126969,1371390,153751,?,?,?,162
raw_data_keyboard,10,6,weka.classifiers.trees.M5P,'-M 4.0 -num-decimal-places 4',-6118439039768244417,20260322.1823,12567,1396,1.372247,2.322569,98.721724,99.054924,0.161003,0,0,?,?,?,?,?,?,0.868,0.003,0.78125,0,781.25,0,10019,1371390,153751,?,?,?,1
raw_data_keyboard,10,7,weka.classifiers.trees.M5P,'-M 4.0 -num-decimal-places 4',-6118439039768244417,20260322.1823,12567,1396,1.13637,4.553296,72.00448,102.134564,0.226817,0,0,?,?,?,?,?,?,0.88,0.003,0.8125,0,812.5,0,65965,1371390,153751,?,?,?,78
raw_data_keyboard,10,8,weka.classifiers.trees.M5P,'-M 4.0 -num-decimal-places 4',-6118439039768244417,20260322.1823,12567,1396,1.120718,5.633282,65.444822,96.465281,0.264798,0,0,?,?,?,?,?,?,0.85,0.001,0.734375,0,734.375,0,118261,1371390,153751,?,?,?,150
raw_data_keyboard,10,9,weka.classifiers.trees.M5P,'-M 4.0 -num-decimal-places 4',-6118439039768244417,20260322.1823,12567,1396,1.423188,8.431107,65.253523,95.914194,0.291977,0,0,?,?,?,?,?,?,0.522,0.001,0.5,0,500,0,112733,1371390,153751,?,?,?,142
raw_data_keyboard,10,10,weka.classifiers.trees.M5P,'-M 4.0 -num-decimal-places 4',-6118439039768244417,20260322.1823,12567,1396,0.937698,3.299669,59.961787,89.643783,0.443664,0,0,?,?,?,?,?,?,0.514,0.001,0.484375,0.015625,484.375,15.625,175865,1371390,153751,?,?,?,230
