@RELATION lunarlander

@ATTRIBUTE x_position NUMERIC
@ATTRIBUTE y_position NUMERIC
@ATTRIBUTE x_velocity NUMERIC
@ATTRIBUTE y_velocity NUMERIC
@ATTRIBUTE angle NUMERIC
@ATTRIBUTE angular_velocity NUMERIC
@ATTRIBUTE left_leg_contact NUMERIC
@ATTRIBUTE right_leg_contact NUMERIC
@ATTRIBUTE action {0,1,2,3}
@ATTRIBUTE next_reward NUMERIC

@DATA
0.0025712966,1.4130416,0.26042807,0.094285555,-0.0029727104,-0.058990855,0.0,0.0,0,-0.351938
0.0051426888,1.4150883,0.26007628,0.090951525,-0.005887696,-0.05830439,0.0,0.0,0,-0.349198
0.0077140806,1.4170381,0.26008537,0.086645335,-0.008800981,-0.058270894,0.0,0.0,0,-0.345392
0.010285663,1.4188907,0.26009402,0.082320146,-0.011713882,-0.05826328,0.0,0.0,0,-0.342411
0.012857246,1.4206462,0.26010263,0.07799774,-0.014626331,-0.058254153,0.0,0.0,0,-0.339439
0.01542902,1.4223046,0.26011127,0.073675506,-0.017538315,-0.058244906,0.0,0.0,0,-0.336543
0.018000793,1.4238659,0.26011986,0.0693533,-0.020449877,-0.058235932,0.0,0.0,0,-0.333717
0.020572662,1.42533,0.2601284,0.065031,-0.023360923,-0.058226787,0.0,0.0,0,-0.330982
0.023144627,1.426697,0.26013693,0.06070865,-0.026271565,-0.058217667,0.0,0.0,0,-0.328324
0.025716687,1.4279671,0.26014543,0.05638624,-0.029181723,-0.058208615,0.0,0.0,0,-0.325719
0.028288841,1.4291397,0.26015392,0.05206377,-0.03209145,-0.058199603,0.0,0.0,0,-0.323203
0.03086109,1.4302155,0.26016238,0.04774124,-0.035000715,-0.05819059,0.0,0.0,0,-0.320720
0.03343334,1.431194,0.26017076,0.043418653,-0.037909552,-0.058181655,0.0,0.0,0,-0.318312
0.036005784,1.4320753,0.26017916,0.039096005,-0.040817924,-0.058172725,0.0,0.0,0,-0.315959
0.03857832,1.4328595,0.26018754,0.034773298,-0.043725867,-0.05816382,0.0,0.0,0,-0.313649
0.04115095,1.4335465,0.26019585,0.030450499,-0.046633344,-0.05815495,0.0,0.0,0,-0.311401
0.04372368,1.4341366,0.26020414,0.026127642,-0.049540386,-0.058146127,0.0,0.0,0,-0.309176
0.04629631,1.4346297,0.2602124,0.021804724,-0.052447,-0.058137327,0.0,0.0,0,-0.306971
0.04886923,1.4350253,0.26022062,0.017481748,-0.05535316,-0.058128573,0.0,0.0,0,-0.304821
0.051442146,1.435324,0.2602288,0.013158707,-0.058258902,-0.05811984,0.0,0.0,0,-0.302665
0.05401516,1.4355254,0.26023695,0.008835612,-0.061164197,-0.058111183,0.0,0.0,0,-0.300550
0.056588363,1.4356298,0.26024503,0.0045124507,-0.06406905,-0.058102507,0.0,0.0,0,-0.298427
0.059161566,1.435637,0.2602531,0.00018922635,-0.06697351,-0.058093894,0.0,0.0,0,-0.296315
0.061734866,1.435547,0.26026112,-0.004134052,-0.069877505,-0.0580853,0.0,0.0,0,-0.294205
0.06430817,1.43536,0.2602691,-0.008457378,-0.072781086,-0.058076777,0.0,0.0,0,-0.284277
0.066880606,1.4350542,0.26017156,-0.013731901,-0.07568459,-0.058069967,0.0,0.0,0,-0.288669
0.06945296,1.4346515,0.2601715,-0.018052604,-0.078588076,-0.058069944,0.0,0.0,0,-0.286544
0.072025396,1.4341515,0.26017144,-0.022373307,-0.081491575,-0.058069944,0.0,0.0,0,-0.284420
0.07459774,1.4335546,0.26017135,-0.02669401,-0.08439507,-0.058069885,0.0,0.0,0,-0.282256
0.07717018,1.4328605,0.26017126,-0.031014713,-0.08729855,-0.058069855,0.0,0.0,0,-0.280070
0.079742625,1.4320694,0.26017118,-0.035335418,-0.09020205,-0.058069833,0.0,0.0,0,-0.277827
0.082315065,1.4311812,0.2601711,-0.039656125,-0.09310552,-0.05806973,0.0,0.0,0,-0.275544
0.084887505,1.4301959,0.260171,-0.04397683,-0.096009016,-0.058069665,0.0,0.0,0,-0.273207
0.087459944,1.4291134,0.26017088,-0.048297532,-0.0989125,-0.058069617,0.0,0.0,0,-0.270831
0.090032384,1.4279339,0.2601708,-0.052618243,-0.101815976,-0.058069587,0.0,0.0,0,-0.268382
0.09260483,1.4266574,0.2601707,-0.056938946,-0.10471945,-0.05806954,0.0,0.0,0,-0.265871
0.09517727,1.4252837,0.2601706,-0.061259646,-0.10762293,-0.05806951,0.0,0.0,0,-0.263307
0.09774981,1.423813,0.26017052,-0.065580346,-0.110526405,-0.05806945,0.0,0.0,0,-0.260654
0.10032225,1.4222451,0.2601704,-0.06990104,-0.11342987,-0.058069427,0.0,0.0,0,-0.257946
0.10289478,1.4205803,0.26017025,-0.074221745,-0.11633334,-0.0580694,0.0,0.0,0,-0.255137
0.10546732,1.4188182,0.26017016,-0.078542456,-0.11923682,-0.05806937,0.0,0.0,0,-0.252267
0.10803976,1.416959,0.26017,-0.08286316,-0.122140296,-0.05806935,0.0,0.0,0,-0.249307
0.110612296,1.4150028,0.26016986,-0.08718385,-0.12504378,-0.05806933,0.0,0.0,0,-0.246274
0.11318483,1.4129497,0.2601697,-0.09150455,-0.12794724,-0.058069307,0.0,0.0,0,-0.243144
0.115757465,1.4107993,0.26016957,-0.09582525,-0.1308507,-0.05806929,0.0,0.0,0,-0.239923
0.11833,1.4085518,0.26016945,-0.10014594,-0.13375416,-0.058069266,0.0,0.0,0,-0.236613
0.12090254,1.4062072,0.2601693,-0.10446665,-0.13665763,-0.05806923,0.0,0.0,0,-0.233230
0.12347517,1.4037657,0.26016915,-0.10878734,-0.1395611,-0.0580692,0.0,0.0,0,-0.229735
0.1260477,1.4012269,0.260169,-0.11310805,-0.14246456,-0.05806915,0.0,0.0,0,-0.226147
0.12862034,1.398591,0.26016882,-0.11742874,-0.14536802,-0.058069102,0.0,0.0,0,-0.222470
0.13119297,1.395858,0.26016864,-0.12174944,-0.14827147,-0.058069058,0.0,0.0,0,-0.218714
0.13376561,1.393028,0.2601685,-0.12607014,-0.15117492,-0.05806904,0.0,0.0,0,-0.214847
0.13633823,1.390101,0.26016828,-0.13039084,-0.15407836,-0.058069,0.0,0.0,0,-0.210907
0.13891086,1.3870769,0.26016814,-0.13471153,-0.15698183,-0.05806893,0.0,0.0,0,-0.206858
0.14148359,1.3839556,0.260168,-0.13903223,-0.15988527,-0.05806889,0.0,0.0,0,-0.202717
0.14405632,1.3807373,0.26016784,-0.14335294,-0.16278873,-0.058068864,0.0,0.0,0,-0.198492
0.14662895,1.3774219,0.26016766,-0.14767364,-0.16569218,-0.058068812,0.0,0.0,0,-0.194151
0.14920168,1.3740093,0.26016748,-0.15199433,-0.16859563,-0.05806876,0.0,0.0,0,-0.189749
0.1517744,1.3704996,0.2601673,-0.15631504,-0.17149906,-0.058068722,0.0,0.0,0,-0.185244
0.15434703,1.3668929,0.2601671,-0.16063574,-0.17440249,-0.058068663,0.0,0.0,0,-0.180667
0.15691976,1.3631892,0.2601669,-0.16495642,-0.17730592,-0.058068626,0.0,0.0,0,-0.175990
0.1594924,1.3593884,0.26016673,-0.16927713,-0.18020934,-0.058068596,0.0,0.0,0,-0.171228
0.16206512,1.3554903,0.26016656,-0.17359781,-0.18311277,-0.058068566,0.0,0.0,0,-0.166384
0.16463785,1.3514951,0.26016635,-0.17791851,-0.1860162,-0.058068536,0.0,0.0,0,-0.161471
0.16721058,1.347403,0.26016614,-0.18223922,-0.18891963,-0.058068503,0.0,0.0,0,-0.156465
0.16978331,1.3432138,0.26016596,-0.1865599,-0.19182305,-0.058068477,0.0,0.0,0,-0.151380
0.17235604,1.3389274,0.26016575,-0.1908806,-0.19472645,-0.058068465,0.0,0.0,0,-0.146226
0.17492886,1.334544,0.26016554,-0.1952013,-0.19762987,-0.058068417,0.0,0.0,0,-0.141005
0.17750159,1.3300633,0.26016533,-0.19952197,-0.20053329,-0.058068402,0.0,0.0,0,-0.135704
0.18007441,1.3254857,0.26016513,-0.20384267,-0.2034367,-0.058068383,0.0,0.0,0,-0.130345
0.18264723,1.3208112,0.26016492,-0.20816335,-0.20634012,-0.058068365,0.0,0.0,0,-0.124907
0.18522005,1.3160393,0.26016468,-0.21248406,-0.20924354,-0.058068313,0.0,0.0,0,-0.119403
0.18779297,1.3111705,0.26016447,-0.21680474,-0.21214695,-0.058068283,0.0,0.0,0,-0.113850
0.19036579,1.3062046,0.26016426,-0.22112544,-0.21505037,-0.058068223,0.0,0.0,0,-0.108210
0.19293872,1.3011415,0.26016405,-0.22544615,-0.21795379,-0.05806821,0.0,0.0,0,-0.102539
0.19551162,1.2959813,0.26016384,-0.22976685,-0.2208572,-0.058068186,0.0,0.0,0,-0.096797
0.19808455,1.290724,0.2601636,-0.23408754,-0.2237606,-0.058068145,0.0,0.0,0,-0.091015
0.20065756,1.2853698,0.26016337,-0.23840824,-0.226664,-0.05806812,0.0,0.0,0,-0.085170
0.20323047,1.2799184,0.26016313,-0.24272892,-0.22956742,-0.058068067,0.0,0.0,1,0.660508
0.20574684,1.2743979,0.25300336,-0.24556558,-0.23094687,-0.027588885,0.0,0.0,1,1.222279
0.20816965,1.2688062,0.24123767,-0.24835926,-0.22990075,0.020922564,0.0,0.0,1,1.404330
0.21050148,1.2631421,0.22983766,-0.25121766,-0.22650594,0.06789603,0.0,0.0,1,1.496112
0.2127554,1.2574111,0.22001536,-0.25389653,-0.22105499,0.10901904,0.0,0.0,1,1.547054
0.21493855,1.2515982,0.2111206,-0.2572884,-0.21378931,0.1453135,0.0,0.0,0,0.936303
0.21712169,1.2456889,0.21111917,-0.2616127,-0.20652367,0.14531298,0.0,0.0,0,0.942801
0.21930495,1.2396833,0.21111779,-0.26593703,-0.19925804,0.14531243,0.0,0.0,0,0.949357
0.22148828,1.233581,0.21111643,-0.27026135,-0.19199245,0.14531189,0.0,0.0,0,0.955959
0.22367172,1.227382,0.21111515,-0.2745857,-0.1847269,0.14531133,0.0,0.0,0,0.962577
0.22585526,1.2210866,0.21111389,-0.27891004,-0.17746136,0.14531083,0.0,0.0,0,0.969220
0.22803898,1.2146947,0.2111127,-0.2832344,-0.17019585,0.14531027,0.0,0.0,0,0.975913
0.2302227,1.2082064,0.21111155,-0.2875587,-0.16293037,0.14530972,0.0,0.0,1,1.714311
0.23233251,1.2016283,0.20185927,-0.29138616,-0.15380646,0.18247789,0.0,0.0,1,1.903074
0.23437461,1.1949804,0.19330387,-0.29438093,-0.14291258,0.21787779,0.0,0.0,1,2.215283
0.23632507,1.1882453,0.18177623,-0.2981121,-0.12970212,0.26420966,0.0,0.0,1,2.405797
0.23818807,1.1814318,0.17078985,-0.30154637,-0.114266716,0.30870846,0.0,0.0,0,1.805304
0.24005136,1.1745243,0.17078617,-0.30588615,-0.09883153,0.3087034,0.0,0.0,0,1.812320
0.24191494,1.1675227,0.17078298,-0.31022596,-0.08339663,0.30869833,0.0,0.0,0,1.819355
0.2437787,1.1604269,0.17078024,-0.3145658,-0.067961976,0.3086933,0.0,0.0,1,2.549693
0.24556008,1.1532524,0.16041651,-0.31815925,-0.050438117,0.35047704,0.0,0.0,1,2.469560
0.24728116,1.1459785,0.1528413,-0.32274073,-0.031404544,0.38067186,0.0,0.0,1,2.846238
0.2489129,1.1386111,0.14162323,-0.32713047,-0.010126815,0.42555445,0.0,0.0,0,0.190742
0.25054464,1.1311524,0.14162198,-0.3314884,0.011150242,0.42554116,0.0,0.0,0,-1.827426
0.25217637,1.1236026,0.14162196,-0.3358463,0.032426633,0.4255279,0.0,0.0,0,-1.820201
0.25380793,1.1159618,0.14162314,-0.34020418,0.053702362,0.42551464,0.0,0.0,1,-1.736727
0.25535575,1.1082145,0.13113803,-0.34532946,0.077090286,0.46775857,0.0,0.0,1,-1.919391
0.2568062,1.1003721,0.11898051,-0.35010454,0.10291758,0.5165461,0.0,0.0,1,-2.249698
0.2581725,1.092428,0.10852035,-0.35524103,0.13085844,0.55881727,0.0,0.0,0,-2.464139
0.25953788,1.0843971,0.10853167,-0.35962597,0.1587978,0.55878717,0.0,0.0,0,-2.456905
0.26090232,1.0762792,0.1085457,-0.3640107,0.18673564,0.5587571,0.0,0.0,0,-2.449677
0.2622653,1.0680743,0.108562425,-0.36839515,0.21467198,0.558727,0.0,0.0,1,-2.592800
0.26353416,1.0597466,0.0968943,-0.3747617,0.24505338,0.60762864,0.0,0.0,1,-2.883509
0.2647132,1.051296,0.085859686,-0.38126212,0.27777487,0.65443027,0.0,0.0,1,-3.168964
0.26580554,1.0427197,0.07529346,-0.38800457,0.3127777,0.7000574,0.0,0.0,0,-3.123058
0.26689452,1.0340617,0.07533805,-0.3924228,0.3477776,0.69999826,0.0,0.0,0,-3.115862
0.2679798,1.0253218,0.07538779,-0.39683995,0.38277453,0.6999392,0.0,0.0,0,-3.108661
0.269061,1.0165,0.07544257,-0.40125582,0.4177685,0.6998802,0.0,0.0,0,-3.101428
0.2701377,1.0075958,0.07550234,-0.40567037,0.4527595,0.6998211,0.0,0.0,0,-3.094189
0.27120972,0.9986089,0.075567044,-0.41008347,0.48774758,0.6997622,0.0,0.0,0,-3.086954
0.2722765,0.9895393,0.07563658,-0.41449502,0.5227327,0.6997032,0.0,0.0,0,-3.079697
0.27333793,0.98038644,0.07571088,-0.4189049,0.5577149,0.6996442,0.0,0.0,0,-3.072445
0.27439356,0.97115034,0.07578984,-0.42331302,0.5926941,0.6995852,0.0,0.0,0,-3.065156
0.27544308,0.96183044,0.07587336,-0.42771918,0.62767035,0.6995262,0.0,0.0,0,-3.057880
0.2764861,0.9524264,0.07596135,-0.43212336,0.66264373,0.6994673,0.0,0.0,0,-3.050590
0.27752247,0.94293797,0.076053694,-0.43652543,0.69761413,0.6994084,0.0,0.0,0,-3.043309
0.27855188,0.9333648,0.076150276,-0.44092527,0.7325816,0.6993495,0.0,0.0,0,-3.036005
0.27957383,0.9237065,0.07625098,-0.44532284,0.7675462,0.6992907,0.0,0.0,2,-0.962630
0.280155,0.91436577,0.033427753,-0.43152085,0.8019288,0.6876539,0.0,0.0,2,0.669564
0.28035563,0.90584636,-0.004323161,-0.395986,0.8371203,0.7038308,0.0,0.0,2,0.826605
0.27993354,0.8983847,-0.06612054,-0.3498956,0.8730267,0.71813035,0.0,0.0,2,-1.263981
0.27883378,0.8918757,-0.13317597,-0.30836996,0.90939724,0.72740996,0.0,0.0,2,-3.372959
0.27713567,0.8861243,-0.19219579,-0.2754522,0.9461448,0.7349528,0.0,0.0,0,-3.419339
0.27542773,0.88028616,-0.1920599,-0.27984032,0.982889,0.73488456,0.0,0.0,2,-6.209021
0.27299222,0.8749798,-0.26353705,-0.25656354,1.0193784,0.72978914,0.0,0.0,2,-8.183509
0.26978332,0.87001175,-0.33937442,-0.24157904,1.0551343,0.7151189,0.0,0.0,2,-6.836557
0.2660099,0.8655886,-0.3948933,-0.21804461,1.0913229,0.7237746,0.0,0.0,2,-8.288080
0.26162148,0.86138123,-0.45502013,-0.20857982,1.1270534,0.71461046,0.0,0.0,0,-3.204747
0.25722295,0.8570838,-0.45487627,-0.21294776,1.1627806,0.7145477,0.0,0.0,3,-2.350532
0.25285062,0.8527914,-0.45018944,-0.21159902,1.1961651,0.66768974,0.0,0.0,3,-2.062737
0.24850312,0.84852034,-0.44572657,-0.2092265,1.2268664,0.61402506,0.0,0.0,3,-1.778925
0.24418183,0.8442746,-0.44133362,-0.20651476,1.2547684,0.55803925,0.0,0.0,3,-1.727903
0.23987417,0.8400381,-0.43852204,-0.2047423,1.2803065,0.5107619,0.0,0.0,0,-2.197258
0.23556098,0.83570695,-0.4384436,-0.20907876,1.3058434,0.51073897,0.0,0.0,0,-2.191952
0.23124227,0.83128065,-0.43836457,-0.21341388,1.3313792,0.510716,0.0,0.0,0,-2.186601
0.22691794,0.8267593,-0.43828496,-0.21774764,1.3569138,0.51069313,0.0,0.0,0,-2.181206
0.22258797,0.82214254,-0.43820485,-0.22208002,1.3824474,0.5106701,0.0,0.0,0,-2.175741
0.2182521,0.8174303,-0.43812436,-0.22641106,1.4079797,0.5106472,0.0,0.0,0,-2.170202
0.21391067,0.8126221,-0.43804345,-0.23074073,1.4335109,0.51062423,0.0,0.0,3,-1.601954
0.20956746,0.807826,-0.43728954,-0.22863206,1.4566163,0.46210727,0.0,0.0,3,-1.261878
0.20522538,0.803059,-0.43635708,-0.22550127,1.4769056,0.40578598,0.0,0.0,3,-1.136416
0.20088787,0.79828733,-0.43533367,-0.22432527,1.4951099,0.36408725,0.0,0.0,3,-0.726321
0.19655505,0.79355335,-0.4343523,-0.22061753,1.5102781,0.30336478,0.0,0.0,3,-0.713438
0.19221668,0.7888204,-0.43454975,-0.21910411,1.523251,0.25945988,0.0,0.0,3,-0.325000
0.18788576,0.78410083,-0.43354124,-0.21682867,1.5337282,0.2095447,0.0,0.0,0,-0.672519
0.18355389,0.7792842,-0.43352738,-0.2211491,1.5442054,0.20954314,0.0,0.0,0,-0.667265
0.17922096,0.7743702,-0.4335135,-0.22546941,1.5546825,0.20954156,0.0,0.0,0,-0.661994
0.17488718,0.7693591,-0.43349963,-0.22978964,1.5651594,0.20953998,0.0,0.0,3,-0.059386
0.17055245,0.76437753,-0.43348274,-0.22655678,1.5727863,0.15253793,0.0,0.0,3,0.072641
0.16621657,0.75939703,-0.43355784,-0.22501867,1.5782026,0.1083263,0.0,0.0,3,0.382516
0.1618785,0.75443876,-0.43378767,-0.22220556,1.580927,0.05448814,0.0,0.0,3,0.589883
0.1575346,0.74949807,-0.43439135,-0.21968473,1.581069,0.0028397597,0.0,0.0,3,0.733913
0.15318508,0.7445516,-0.43497044,-0.21855047,1.5791517,-0.038344283,0.0,0.0,3,1.109878
0.1488351,0.7396251,-0.43502682,-0.21587239,1.5745939,-0.09115799,0.0,0.0,0,0.840036
0.1444848,0.73460156,-0.43502426,-0.22019242,1.570036,-0.09115789,0.0,0.0,0,0.845091
0.14013453,0.72948074,-0.43502164,-0.22451241,1.5654782,-0.09115785,0.0,0.0,0,0.850163
0.13578396,0.72426283,-0.43501896,-0.22883244,1.5609204,-0.091157734,0.0,0.0,0,0.855264
0.1314332,0.7189476,-0.43501633,-0.23315245,1.5563625,-0.09115755,0.0,0.0,0,0.860381
0.12708235,0.71353525,-0.43501368,-0.23747249,1.5518047,-0.09115757,0.0,0.0,3,1.599282
0.12273979,0.70816153,-0.43407997,-0.23368196,1.5441834,-0.1524264,0.0,0.0,3,1.645514
0.11839934,0.70278627,-0.43373322,-0.2323091,1.5344129,-0.19541094,0.0,0.0,3,1.846016
0.11405392,0.697418,-0.4340187,-0.23041306,1.5223004,-0.24224937,0.0,0.0,3,2.214947
0.10970716,0.69207686,-0.433856,-0.22733137,1.5073967,-0.2980736,0.0,0.0,3,2.619525
0.10536537,0.68677485,-0.4328846,-0.22353338,1.4894238,-0.35945886,0.0,0.0,3,2.838637
0.101023,0.6815037,-0.4323218,-0.22026712,1.4685887,-0.41670018,0.0,0.0,3,3.083682
0.09667806,0.676257,-0.43180728,-0.21737416,1.4450359,-0.47105446,0.0,0.0,0,2.754881
0.092328265,0.6709142,-0.43173772,-0.22169948,1.4214841,-0.47103637,0.0,0.0,0,2.759322
0.087973595,0.6654751,-0.43166843,-0.2260259,1.3979332,-0.4710184,0.0,0.0,3,3.443785
0.08363056,0.66004574,-0.42948443,-0.2240751,1.3719766,-0.51913273,0.0,0.0,3,3.672996
0.079290584,0.654637,-0.42791566,-0.22152384,1.3434166,-0.5712017,0.0,0.0,3,4.097472
0.074961945,0.6492634,-0.4252202,-0.21817589,1.3119165,-0.6300031,0.0,0.0,3,4.094242
0.07063408,0.6438864,-0.42360416,-0.21717857,1.2783946,-0.67043823,0.0,0.0,3,4.504309
0.0663208,0.6385174,-0.42029896,-0.21554829,1.2425331,-0.7172323,0.0,0.0,3,4.783893
0.06202326,0.63316053,-0.41661945,-0.21375056,1.2042499,-0.76566434,0.0,0.0,3,5.228166
0.057750322,0.6278352,-0.4116327,-0.21093413,1.1630962,-0.8230742,0.0,0.0,3,5.407121
0.053493403,0.6225357,-0.4073034,-0.2086038,1.1192964,-0.8759986,0.0,0.0,0,4.769223
0.04922123,0.6171504,-0.4070832,-0.21299109,1.0755024,-0.8758829,0.0,0.0,0,4.770692
0.044934083,0.61168,-0.40686774,-0.21738474,1.0317142,-0.87576735,0.0,0.0,0,4.771980
0.040632345,0.6061256,-0.40665737,-0.22178458,0.98793167,-0.8756517,0.0,0.0,0,4.773071
0.03631649,0.6004883,-0.40645242,-0.22619048,0.9441549,-0.8755361,0.0,0.0,0,4.774016
0.031986903,0.59476876,-0.40625334,-0.23060223,0.9003839,-0.8754206,0.0,0.0,0,4.774773
0.027644062,0.5889679,-0.40606052,-0.23501971,0.85661864,-0.87530506,0.0,0.0,0,4.775363
0.02328844,0.58308655,-0.4058742,-0.23944274,0.8128592,-0.87518966,0.0,0.0,0,4.775769
0.018920612,0.5771257,-0.40569487,-0.24387106,0.76910543,-0.8750744,0.0,0.0,0,4.776009
0.014540958,0.57108593,-0.40552288,-0.24830453,0.7253575,-0.874959,0.0,0.0,0,4.776076
0.010150051,0.56496817,-0.40535846,-0.25274286,0.6816153,-0.8748436,0.0,0.0,3,5.869700
0.0058094026,0.5588506,-0.39726898,-0.25281224,0.6356046,-0.92021513,0.0,0.0,3,6.214149
0.0015319824,0.55272883,-0.38764232,-0.25324,0.58717185,-0.96865606,0.0,0.0,3,6.276357
-0.0026935576,0.54659873,-0.37931874,-0.25419354,0.5366494,-1.0104499,0.0,0.0,0,5.429441
-0.006930637,0.5404007,-0.3791467,-0.25869566,0.48613584,-1.0102723,0.0,0.0,0,5.427152
-0.011178112,0.53413546,-0.3789887,-0.26320332,0.4356312,-1.0100949,0.0,0.0,0,5.424701
-0.015435219,0.5278039,-0.37884516,-0.26771602,0.38513538,-1.0099175,0.0,0.0,0,5.422086
-0.019700622,0.52140665,-0.37871635,-0.27223328,0.33464843,-1.0097402,0.0,0.0,0,5.419325
-0.023973275,0.51494426,-0.37860265,-0.27675456,0.28417033,-1.0095631,0.0,0.0,0,5.416417
-0.02825222,0.5084172,-0.37850434,-0.2812794,0.2337011,-1.009386,0.0,0.0,0,5.413379
-0.032536127,0.5018258,-0.3784217,-0.28580725,0.18324073,-1.0092089,0.0,0.0,0,5.410192
-0.03682413,0.4951707,-0.37835485,-0.29033756,0.1327892,-1.009032,0.0,0.0,0,5.406905
-0.041114997,0.4884518,-0.37830397,-0.29486987,0.082346484,-1.0088553,0.0,0.0,0,5.403474
-0.045407772,0.48166955,-0.37826926,-0.29940358,0.0319126,-1.0086787,0.0,0.0,0,1.697465
-0.049700927,0.47482374,-0.3782507,-0.3039381,-0.018512443,-1.0085021,0.0,0.0,0,-4.686947
-0.053993702,0.46791458,-0.37824842,-0.30847296,-0.06892866,-1.0083256,0.0,0.0,0,-4.688932
-0.05828495,0.46094185,-0.37826237,-0.31300756,-0.11933603,-1.008149,0.0,0.0,0,-4.691041
-0.06257324,0.45390546,-0.37829253,-0.31754148,-0.16973458,-1.0079727,0.0,0.0,2,-0.463094
-0.06671677,0.44809484,-0.36421442,-0.26475838,-0.22015324,-1.0083752,0.0,0.0,2,-2.725945
-0.07087259,0.4432854,-0.36523372,-0.22207808,-0.27135757,-1.0240881,0.0,0.0,2,-0.399856
-0.074769974,0.43968788,-0.34016988,-0.16989988,-0.3224836,-1.0225217,0.0,0.0,0,-5.031391
-0.078659914,0.43602622,-0.34026676,-0.17443143,-0.3736004,-1.0223377,0.0,0.0,0,-5.033862
-0.08254127,0.43229944,-0.34037971,-0.17895938,-0.424708,-1.0221539,0.0,0.0,0,-5.036205
-0.086413,0.4285071,-0.3405084,-0.18348318,-0.47580644,-1.02197,0.0,0.0,0,-5.038395
-0.09027414,0.42464834,-0.34065253,-0.18800233,-0.52689564,-1.0217863,0.0,0.0,2,-1.312363
-0.09385405,0.4215535,-0.31368822,-0.15565221,-0.5781869,-1.0258273,0.0,0.0,2,0.589164
-0.096929744,0.4192328,-0.26512545,-0.12254074,-0.62898564,-1.0159761,0.0,0.0,2,0.962658
-0.09946213,0.41772974,-0.21263263,-0.08745315,-0.6794042,-1.0083724,0.0,0.0,2,2.484661
-0.10129614,0.4171571,-0.14480749,-0.04720353,-0.7292932,-0.99778175,0.0,0.0,2,2.170254
-0.10243521,0.41763562,-0.077006765,-0.0017172843,-0.7791367,-0.9968704,0.0,0.0,2,-1.116998
-0.10271845,0.41894162,0.0062332293,0.034273244,-0.8281613,-0.9804926,0.0,0.0,1,-4.882386
-0.10304222,0.42027068,-0.0012833102,0.035530563,-0.8745989,-0.9287527,0.0,0.0,1,-4.816302
-0.10340758,0.4216273,-0.008832825,0.037288148,-0.91829103,-0.8738438,0.0,0.0,1,-4.543961
-0.103807926,0.42298165,-0.0151134,0.037597794,-0.95981824,-0.8305457,0.0,0.0,1,-4.357109
-0.10422802,0.424337,-0.019633463,0.038117018,-0.9993183,-0.7900028,0.0,0.0,1,-4.346039
-0.10468531,0.42571342,-0.026069835,0.04004097,-1.0361294,-0.7362214,0.0,0.0,1,-4.011604
-0.10517464,0.42708707,-0.031539317,0.040757354,-1.0707392,-0.69219506,0.0,0.0,1,-3.793054
-0.10568829,0.4284668,-0.03608532,0.042015057,-1.1030582,-0.64638215,0.0,0.0,1,-3.509689
-0.10622005,0.42984518,-0.03974134,0.0429167,-1.1332825,-0.60448587,0.0,0.0,1,-3.319612
-0.10676823,0.43123314,-0.043156978,0.044517737,-1.161188,-0.5581101,0.0,0.0,1,-3.074613
-0.10733433,0.43262294,-0.046517927,0.045768257,-1.1868935,-0.51410824,0.0,0.0,0,-2.418702
-0.107894994,0.43391883,-0.04659558,0.041426525,-1.2125977,-0.5140849,0.0,0.0,0,-2.426926
-0.10845013,0.4351206,-0.046674047,0.03708613,-1.2383008,-0.51406145,0.0,0.0,0,-2.437620
-0.10899973,0.43622798,-0.046753265,0.032747094,-1.2640027,-0.514038,0.0,0.0,0,-2.451065
-0.1095439,0.43724084,-0.046833184,0.028409412,-1.2897034,-0.5140146,0.0,0.0,0,-2.467459
-0.11008243,0.43815902,-0.046913754,0.024073115,-1.315403,-0.5139912,0.0,0.0,0,-2.486878
-0.11061525,0.43898213,-0.04699493,0.019738201,-1.3411014,-0.51396775,0.0,0.0,0,-2.509316
-0.11114244,0.43971,-0.047076646,0.015404685,-1.3667986,-0.51394427,0.0,0.0,1,-2.633138
-0.111671545,0.44044876,-0.04837487,0.017383572,-1.3901135,-0.4662962,0.0,0.0,1,-2.530708
-0.11221848,0.4412098,-0.05112647,0.020115519,-1.4107105,-0.41193908,0.0,0.0,1,-2.165014
-0.11277294,0.44199923,-0.052723557,0.02321642,-1.4284912,-0.3556152,0.0,0.0,1,-1.902759
-0.11333637,0.44283056,-0.05433511,0.027137946,-1.4431474,-0.29312488,0.0,0.0,0,-1.372759
-0.1138979,0.443565,-0.05436226,0.022815477,-1.4578035,-0.29312053,0.0,0.0,0,-1.390421
-0.11445751,0.4442025,-0.054389454,0.018493276,-1.4724593,-0.29311615,0.0,0.0,0,-1.410272
-0.11501531,0.44474316,-0.054416694,0.014171341,-1.4871149,-0.29311183,0.0,0.0,1,-1.471913
-0.11557827,0.4452752,-0.05530535,0.01511961,-1.4997747,-0.25319466,0.0,0.0,1,-1.204737
-0.11614027,0.44579902,-0.055483006,0.016102444,-1.510436,-0.21322711,0.0,0.0,1,-1.020463
-0.11670361,0.446321,-0.055844884,0.017456256,-1.5189562,-0.17040312,0.0,0.0,1,-0.761916
-0.11726399,0.44684958,-0.055729877,0.019315865,-1.5251492,-0.12385966,0.0,0.0,0,-0.548705
-0.11782398,0.44728103,-0.055734772,0.014995705,-1.5313421,-0.1238593,0.0,0.0,0,-0.569485
-0.11838369,0.44761527,-0.05573966,0.0106755635,-1.5375351,-0.12385897,0.0,0.0,0,-0.591821
-0.11894293,0.4478523,-0.055744547,0.006355444,-1.543728,-0.12385867,0.0,0.0,1,-0.473463
-0.11950426,0.44812453,-0.056046236,0.009931293,-1.5469415,-0.06427001,0.0,0.0,1,-0.301890
-0.12007408,0.44838488,-0.056952514,0.010696068,-1.5482329,-0.025828186,0.0,0.0,0,-0.095692
-0.1206439,0.44854796,-0.056952726,0.006376065,-1.5495243,-0.025828224,0.0,0.0,0,-0.118483
-0.12121372,0.44861385,-0.056952935,0.0020560615,-1.5508157,-0.025828227,0.0,0.0,0,-0.141827
-0.12178354,0.4485826,-0.056953143,-0.0022639416,-1.5521071,-0.025828207,0.0,0.0,0,-0.165152
-0.12235327,0.44845405,-0.05695336,-0.006583945,-1.5533985,-0.025828222,0.0,0.0,1,0.098524
-0.122928426,0.44835877,-0.05754763,-0.0031251865,-1.5517536,0.032897837,0.0,0.0,1,0.318027
-0.12350931,0.44827524,-0.058170836,-0.0009433606,-1.5476539,0.08199503,0.0,0.0,0,0.388722
-0.12409,0.4480945,-0.05817298,-0.0052633923,-1.5435542,0.08199494,0.0,0.0,0,0.366365
-0.124670506,0.44781655,-0.058175117,-0.0095834285,-1.5394545,0.08199486,0.0,0.0,0,0.344857
-0.1252509,0.44744146,-0.058177263,-0.013903471,-1.5353547,0.08199479,0.0,0.0,1,0.546064
-0.12584066,0.44706532,-0.059227575,-0.012483787,-1.5290835,0.12542406,0.0,0.0,1,0.839933
-0.12643127,0.44668853,-0.059453417,-0.011053847,-1.520643,0.16880955,0.0,0.0,1,0.963926
-0.12703066,0.4463092,-0.060539503,-0.009721897,-1.5100621,0.21161881,0.0,0.0,0,1.002930
-0.12762919,0.44583273,-0.060553752,-0.014042426,-1.4994812,0.21161719,0.0,0.0,0,0.983735
-0.12822667,0.44525915,-0.060567997,-0.018363059,-1.4889004,0.21161549,0.0,0.0,1,1.269214
-0.1288352,0.44470856,-0.062041115,-0.0155260125,-1.4756045,0.26591817,0.0,0.0,1,1.426297
-0.129455,0.44415388,-0.063568816,-0.014302397,-1.4601977,0.30813596,0.0,0.0,0,1.474653
-0.13007268,0.44350234,-0.063598946,-0.018624472,-1.4447912,0.30813092,0.0,0.0,0,1.457995
-0.13068828,0.44275403,-0.06362901,-0.022946859,-1.429385,0.3081259,0.0,0.0,0,1.442844
-0.13130179,0.44190904,-0.06365902,-0.027269548,-1.4139789,0.30812082,0.0,0.0,0,1.429337
-0.13191319,0.44096726,-0.06368896,-0.031592548,-1.3985732,0.30811578,0.0,0.0,0,1.417507
-0.1325225,0.43992886,-0.06371884,-0.03591585,-1.3831676,0.30811074,0.0,0.0,2,4.871866
-0.1324381,0.43883738,0.005325459,-0.037991915,-1.367299,0.31737268,0.0,0.0,2,-2.101375
-0.1317298,0.4380013,0.06757592,-0.02699991,-1.3519107,0.3077642,0.0,0.0,2,-3.026272
-0.13057128,0.436982,0.112193145,-0.034708086,-1.3358135,0.32194456,0.0,0.0,0,1.617804
-0.12941046,0.4358662,0.11216092,-0.039033048,-1.3197166,0.32193875,0.0,0.0,0,1.612773
-0.12824745,0.4346542,0.11212883,-0.043358352,-1.30362,0.321933,0.0,0.0,0,1.608282
-0.12708235,0.43334585,0.11209688,-0.047684,-1.2875236,0.32192725,0.0,0.0,0,1.604327
-0.12591496,0.43194124,0.11206506,-0.052009992,-1.2714275,0.32192153,0.0,0.0,2,-5.577489
-0.12397442,0.43065965,0.18899499,-0.046337403,-1.2549268,0.33001414,0.0,0.0,2,-3.144845
-0.12154035,0.4295788,0.23813844,-0.03757601,-1.2385904,0.3267277,0.0,0.0,0,1.744676
-0.11910419,0.42840186,0.23810616,-0.041903235,-1.2222543,0.32672173,0.0,0.0,0,1.745466
-0.11666574,0.427129,0.2380741,-0.04623081,-1.2059186,0.3267157,0.0,0.0,0,1.746358
-0.114225104,0.4257602,0.23804219,-0.050558746,-1.1895831,0.3267097,0.0,0.0,0,1.747323
-0.11178227,0.42429557,0.23801048,-0.05488702,-1.1732479,0.32670364,0.0,0.0,0,1.748402
-0.10933723,0.42273504,0.23797898,-0.059215643,-1.156913,0.32669762,0.0,0.0,0,1.749554
-0.10689001,0.4210788,0.23794767,-0.0635446,-1.1405785,0.3266916,0.0,0.0,0,1.750815
-0.104440786,0.41932684,0.23791662,-0.0678739,-1.1242442,0.32668558,0.0,0.0,0,1.752176
-0.101989366,0.4174792,0.2378858,-0.07220354,-1.1079103,0.32667953,0.0,0.0,0,1.753658
-0.09953575,0.41553593,0.23785524,-0.07653351,-1.0915766,0.3266735,0.0,0.0,0,1.755237
-0.09708023,0.413497,0.23782492,-0.08086382,-1.0752432,0.32666746,0.0,0.0,0,1.756940
-0.094622515,0.41136262,0.23779483,-0.08519445,-1.0589101,0.32666144,0.0,0.0,0,1.758733
-0.09216289,0.4091328,0.23776503,-0.08952542,-1.0425774,0.32665545,0.0,0.0,0,1.760672
-0.089701176,0.4068075,0.23773551,-0.09385669,-1.0262449,0.32664943,0.0,0.0,0,1.762699
-0.08723755,0.40438694,0.23770626,-0.0981883,-1.0099127,0.32664344,0.0,0.0,1,2.555338
-0.08480291,0.40196508,0.23334095,-0.09709833,-0.9913858,0.37053862,0.0,0.0,1,2.954116
-0.08241415,0.39953843,0.2271364,-0.096123576,-0.9705064,0.41758808,0.0,0.0,1,3.313339
-0.08007326,0.39712602,0.2203654,-0.09416051,-0.9469038,0.47205153,0.0,0.0,1,3.621994
-0.077778056,0.39474058,0.21358399,-0.0916209,-0.9204056,0.529965,0.0,0.0,1,3.711107
-0.07552185,0.39235592,0.20764332,-0.09066038,-0.8916001,0.57611114,0.0,0.0,0,2.995273
-0.073260024,0.38988084,0.20755997,-0.095023915,-0.8627962,0.57607806,0.0,0.0,0,2.996014
-0.07099257,0.38731587,0.20747852,-0.099389054,-0.8339939,0.57604516,0.0,0.0,1,3.905848
-0.06876717,0.3847355,0.20123294,-0.099450536,-0.80316013,0.6166756,0.0,0.0,1,4.228237
-0.06658821,0.38215357,0.1942223,-0.09887898,-0.7700219,0.6627642,0.0,0.0,0,3.419912
-0.06440258,0.379485,0.19412303,-0.10326497,-0.7368862,0.66271394,0.0,0.0,0,3.420155
-0.062210463,0.37673008,0.1940271,-0.10765312,-0.703753,0.6626638,0.0,0.0,0,3.420533
-0.06001196,0.373889,0.1939346,-0.11204334,-0.67062235,0.66261363,0.0,0.0,0,3.421042
-0.057807542,0.37096226,0.19384566,-0.116435565,-0.6374942,0.66256344,0.0,0.0,0,3.421701
-0.055597402,0.36795002,0.19376035,-0.12082972,-0.60436857,0.6625134,0.0,0.0,0,3.422499
-0.053381823,0.3648526,0.19367877,-0.1252257,-0.57124543,0.6624633,0.0,0.0,0,3.423446
-0.051160812,0.36167023,0.19360103,-0.12962344,-0.5381248,0.6624132,0.0,0.0,0,3.424515
-0.048934937,0.3584032,0.19352718,-0.13402282,-0.50500673,0.6623631,0.0,0.0,0,3.425737
-0.04670439,0.35505182,0.19345732,-0.13842382,-0.47189108,0.6623131,0.0,0.0,0,3.427099
-0.044469453,0.35161614,0.19339153,-0.14282627,-0.43877792,0.66226304,0.0,0.0,0,3.428584
-0.04223051,0.34809652,0.19332987,-0.14723016,-0.40566728,0.66221297,0.0,0.0,0,3.430210
-0.03998766,0.34449306,0.19327241,-0.15163535,-0.37255916,0.6621629,0.0,0.0,0,3.431963
-0.03774128,0.340806,0.19321921,-0.15604176,-0.33945355,0.66211283,0.0,0.0,0,3.433848
-0.035491753,0.33703545,0.19317032,-0.16044928,-0.3063504,0.6620629,0.0,0.0,0,3.435853
-0.033239365,0.3331816,0.19312581,-0.16485785,-0.27324978,0.6620129,0.0,0.0,0,3.437972
-0.030984307,0.3292446,0.19308572,-0.16926733,-0.24015166,0.66196287,0.0,0.0,0,3.440228
-0.028727055,0.32522443,0.19305009,-0.17367762,-0.20705602,0.6619128,0.0,0.0,0,3.442572
-0.0264678,0.32112136,0.19301896,-0.17808865,-0.1739629,0.66186285,0.0,0.0,0,3.445035
-0.024206828,0.31693542,0.19299239,-0.1825003,-0.1408723,0.6618129,0.0,0.0,0,3.447608
-0.021944713,0.31266654,0.19297037,-0.18691249,-0.10778417,0.66176295,0.0,0.0,0,3.450252
-0.019681454,0.30831507,0.19295295,-0.19132514,-0.074698545,0.661713,0.0,0.0,0,3.453012
-0.01741743,0.30388084,0.19294013,-0.19573809,-0.041615404,0.66166306,0.0,0.0,3,2.570046
-0.01507864,0.29936078,0.20229566,-0.20030862,-0.010410675,0.62409484,0.0,0.0,3,-1.388552
-0.012661934,0.29476184,0.21203692,-0.20444877,0.018841773,0.5850493,0.0,0.0,3,-3.391829
-0.0101507185,0.2900792,0.22390266,-0.2086778,0.04571576,0.5374799,0.0,0.0,3,-3.089987
-0.0075574876,0.28530443,0.23424272,-0.21316423,0.070522435,0.49613357,0.0,0.0,0,-2.284814
-0.0049645426,0.28044057,0.23424728,-0.21753664,0.095328055,0.4961125,0.0,0.0,0,-2.281393
-0.0023721694,0.2754877,0.2342538,-0.22190897,0.120132625,0.49609146,0.0,0.0,0,-2.277969
0.00021944047,0.27044564,0.2342622,-0.22628117,0.14493613,0.49607044,0.0,0.0,3,-2.666523
0.0028713227,0.26532134,0.24189453,-0.23018003,0.16820258,0.46532902,0.0,0.0,3,-2.599161
0.0056038857,0.26012707,0.25215355,-0.23338228,0.18937135,0.42337576,0.0,0.0,3,-2.324062
0.008401489,0.25484878,0.26037174,-0.23718615,0.20888601,0.39029363,0.0,0.0,0,-1.720866
0.01119833,0.2494782,0.2603814,-0.24153802,0.22840017,0.39028332,0.0,0.0,0,-1.718202
0.013994503,0.24401537,0.26039198,-0.24588974,0.24791382,0.39027306,0.0,0.0,0,-1.715713
0.016789723,0.2384602,0.26040345,-0.25024134,0.26742694,0.39026284,0.0,0.0,2,1.764997
0.019538498,0.23403504,0.2550875,-0.20041397,0.28773013,0.4060646,0.0,0.0,2,2.130639
0.02208004,0.23055913,0.23448956,-0.15849407,0.30802947,0.40598768,0.0,0.0,0,-1.948085
0.024620533,0.22699128,0.23450498,-0.1628477,0.32832825,0.4059762,0.0,0.0,0,-1.947121
0.027159786,0.22333139,0.23452148,-0.1672011,0.3486265,0.4059647,0.0,0.0,0,-1.946228
0.0296978,0.21957944,0.23453899,-0.1715543,0.3689241,0.40595323,0.0,0.0,0,-1.945443
0.03223448,0.21573538,0.23455751,-0.17590724,0.38922116,0.40594167,0.0,0.0,2,1.842955
0.03445568,0.21239935,0.20376182,-0.15341496,0.40887743,0.39312518,0.0,0.0,2,0.876005
0.036584567,0.20996441,0.19391659,-0.1138377,0.4293629,0.40970984,0.0,0.0,0,-2.062888
0.038711835,0.20743726,0.19393845,-0.11819043,0.4498478,0.40969795,0.0,0.0,0,-2.062954
0.040837478,0.20481785,0.19396129,-0.12254286,0.4703321,0.4096861,0.0,0.0,0,-2.063004
0.042961407,0.20210631,0.19398516,-0.12689497,0.49081576,0.40967423,0.0,0.0,0,-2.063032
0.04508362,0.19930251,0.19400999,-0.13124675,0.5112989,0.40966234,0.0,0.0,0,-2.063051
0.04720392,0.19640638,0.1940358,-0.13559817,0.53178144,0.40965047,0.0,0.0,3,-2.429562
0.049402524,0.19349785,0.20434196,-0.13545957,0.54962915,0.35695437,0.0,0.0,3,-2.214624
0.051678944,0.19056188,0.2144101,-0.13597602,0.56500626,0.30754152,0.0,0.0,3,-1.872214
0.054014683,0.18758406,0.22209838,-0.13726155,0.5784687,0.26924846,0.0,0.0,0,-1.349448
0.056349467,0.1845111,0.22211094,-0.14159456,0.5919309,0.2692451,0.0,0.0,0,-1.350488
0.0586833,0.18134294,0.22212374,-0.14592746,0.605393,0.26924175,0.0,0.0,0,-1.351726
0.061016273,0.17807952,0.22213683,-0.15026024,0.61885494,0.2692384,0.0,0.0,3,-1.680933
0.06342621,0.17480709,0.23214757,-0.14968684,0.62961125,0.2151268,0.0,0.0,3,-1.351177
0.06588678,0.1714833,0.23859027,-0.15137401,0.63873935,0.18256265,0.0,0.0,3,-1.260228
0.06841717,0.16813396,0.24755588,-0.15159059,0.6455023,0.13525978,0.0,0.0,3,-0.891978
0.07099895,0.16475946,0.25431505,-0.15192814,0.6502789,0.09553178,0.0,0.0,3,-0.848768
0.073655605,0.16137178,0.26394826,-0.15143757,0.6524205,0.042832166,0.0,0.0,3,-0.535542
0.0763792,0.15797275,0.27263862,-0.15093003,0.6520724,-0.0069622374,0.0,0.0,0,0.014963
0.0791028,0.15447643,0.27263865,-0.15525004,0.65172434,-0.0069622686,0.0,0.0,0,0.009725
0.08182631,0.15088291,0.27263865,-0.15957002,0.65137625,-0.0069622495,0.0,0.0,0,0.003919
0.084549904,0.1471922,0.27263868,-0.16389003,0.65102816,-0.006962236,0.0,0.0,0,-0.002474
0.087273404,0.14340428,0.2726387,-0.16821004,0.65068007,-0.0069622197,0.0,0.0,0,-0.009518
0.08999701,0.13951916,0.27263868,-0.17253007,0.650332,-0.006962195,0.0,0.0,3,-0.319066
0.09278202,0.13559797,0.28043902,-0.17329472,0.64792824,-0.04807434,0.0,0.0,3,-0.104696
0.09563456,0.13166629,0.28924212,-0.17274186,0.64300823,-0.09840039,0.0,0.0,3,0.080305
0.09854927,0.12769483,0.29711607,-0.17370716,0.6360673,-0.13881958,0.0,0.0,0,0.610375
0.101463795,0.12362667,0.29711974,-0.17803045,0.6291263,-0.13881911,0.0,0.0,0,0.599102
0.10437803,0.119461805,0.2971234,-0.18235376,0.62218535,-0.13881864,0.0,0.0,0,0.586946
0.10729208,0.11520031,0.29712704,-0.18667711,0.61524445,-0.13881814,0.0,0.0,2,5.495966
0.10983105,0.11173404,0.25951257,-0.1514288,0.60847485,-0.135392,0.0,0.0,2,7.606701
0.111788556,0.10923787,0.20166603,-0.108213514,0.6013808,-0.14188088,0.0,0.0,2,7.250131
0.11319742,0.107713446,0.14701433,-0.06496637,0.59405977,-0.14642277,0.0,0.0,0,0.560409
0.114606,0.10609239,0.14701818,-0.06929016,0.5867387,-0.14642224,0.0,0.0,0,0.554536
0.11601429,0.10437471,0.14702201,-0.07361397,0.5794177,-0.14642169,0.0,0.0,0,0.548675
0.11742239,0.10256046,0.1470258,-0.0779378,0.57209665,-0.14642115,0.0,0.0,0,0.542810
0.11883011,0.100649655,0.14702952,-0.08226164,0.56477565,-0.1464206,0.0,0.0,0,0.536908
0.12023773,0.098642215,0.1470332,-0.08658549,0.55745465,-0.14642006,0.0,0.0,0,0.530972
0.121644974,0.09653815,0.14703685,-0.09090936,0.5501337,-0.14641953,0.0,0.0,0,0.524952
0.12305202,0.09433752,0.14704046,-0.09523325,0.54281276,-0.14641896,0.0,0.0,0,0.518842
0.12445879,0.09204033,0.14704403,-0.09955716,0.5354918,-0.14641842,0.0,0.0,2,3.063520
0.12572575,0.09037922,0.13255885,-0.07152005,0.5287666,-0.13450524,0.0,0.0,0,0.460480
0.12699242,0.08862141,0.1325618,-0.0758434,0.5220413,-0.13450482,0.0,0.0,0,0.453673
0.1282588,0.086766966,0.13256471,-0.08016674,0.5153161,-0.13450438,0.0,0.0,0,0.446886
0.12952518,0.08481589,0.1325676,-0.084490106,0.50859094,-0.13450393,0.0,0.0,0,0.440155
0.13079119,0.082768045,0.13257043,-0.088813476,0.50186574,-0.13450351,0.0,0.0,0,0.433375
0.1320571,0.080623634,0.13257322,-0.09313686,0.49514058,-0.13450308,0.0,0.0,0,0.426570
0.1333228,0.078382455,0.132576,-0.097460255,0.48841545,-0.13450268,0.0,0.0,0,0.419691
0.13458833,0.07604464,0.13257875,-0.10178366,0.48169035,-0.13450226,0.0,0.0,2,5.535524
0.13546877,0.07448453,0.09438439,-0.0671465,0.47463736,-0.14105959,0.0,0.0,2,4.718263
0.13598832,0.07344705,0.058870852,-0.043757636,0.46697506,-0.15324564,0.0,0.0,0,0.507760
0.13650751,0.07231315,0.05887426,-0.048082113,0.45931283,-0.15324502,0.0,0.0,0,0.496462
0.1370266,0.0710827,0.058877625,-0.052406605,0.45165062,-0.1532444,0.0,0.0,0,0.486466
0.1375455,0.069755755,0.058880933,-0.05673111,0.44398844,-0.15324378,0.0,0.0,0,0.477622
0.138064,0.06833232,0.058884185,-0.061055634,0.4363263,-0.15324317,0.0,0.0,0,0.469731
0.13858242,0.0668124,0.0588874,-0.06538017,0.42866418,-0.15324257,0.0,0.0,2,7.775899
0.13863468,0.06656979,0.012477088,-0.008594158,0.4208031,-0.15722182,0.0,0.0,2,0.313640
0.13866147,0.06681991,0.00937727,0.013097387,0.4135764,-0.14453414,0.0,0.0,0,1.040064
0.13868818,0.06697348,0.009379981,0.008773306,0.40634972,-0.14453362,0.0,0.0,0,0.963744
0.1387146,0.06703049,0.009382648,0.0044492134,0.39912307,-0.1445331,0.0,0.0,2,-3.661105
0.13833532,0.06792434,-0.030604541,0.041767195,0.39128807,-0.15669987,0.0,0.0,2,-2.448698
0.13781519,0.06939083,-0.0448407,0.06713096,0.38363802,-0.15300116,0.0,0.0,0,1.105227
0.13729477,0.07076083,-0.04483787,0.06280633,0.375988,-0.15300055,0.0,0.0,0,1.100177
0.13677426,0.07203427,-0.044835087,0.058481686,0.36833802,-0.15299991,0.0,0.0,2,-4.508111
0.1359806,0.07423826,-0.07208513,0.099806994,0.36065084,-0.15374342,0.0,0.0,2,-2.608514
0.13509655,0.07710815,-0.08152525,0.12926264,0.35340142,-0.14498827,0.0,0.0,0,1.025767
0.1342123,0.079881415,-0.0815229,0.124938436,0.34615204,-0.14498773,0.0,0.0,0,1.021963
0.13332796,0.08255826,-0.08152059,0.12061421,0.33890268,-0.1449872,0.0,0.0,0,1.018386
0.13244343,0.08513847,-0.08151832,0.11628997,0.33165336,-0.14498661,0.0,0.0,0,1.014957
0.1315587,0.087622195,-0.08151611,0.11196574,0.32440406,-0.14498606,0.0,0.0,0,1.011632
0.13067389,0.090009294,-0.08151394,0.10764148,0.3171548,-0.14498556,0.0,0.0,0,1.008354
0.12978888,0.09229997,-0.08151181,0.10331722,0.30990553,-0.14498505,0.0,0.0,0,1.005065
0.12890378,0.09449409,-0.08150973,0.098992944,0.3026563,-0.14498451,0.0,0.0,0,1.001714
0.12801847,0.09659165,-0.081507705,0.094668664,0.2954071,-0.144984,0.0,0.0,0,0.998216
0.12713318,0.09859272,-0.08150572,0.09034438,0.2881579,-0.14498349,0.0,0.0,0,0.994540
0.12624769,0.100497305,-0.081503786,0.086020075,0.28090876,-0.14498296,0.0,0.0,0,0.990616
0.12536201,0.102305256,-0.08150189,0.08169576,0.27365965,-0.14498244,0.0,0.0,0,0.986350
0.12447624,0.10401672,-0.08150005,0.07737143,0.26641056,-0.14498192,0.0,0.0,0,0.981698
0.123590276,0.105631694,-0.08149826,0.073047094,0.2591615,-0.1449814,0.0,0.0,0,0.976583
0.12270422,0.10715011,-0.08149651,0.068722755,0.25191244,-0.14498088,0.0,0.0,0,0.970919
0.12181816,0.108572036,-0.0814948,0.06439841,0.24466342,-0.14498039,0.0,0.0,0,0.964671
0.12093191,0.109897405,-0.081493154,0.06007405,0.23741442,-0.14497986,0.0,0.0,0,0.957746
0.120045565,0.111126214,-0.081491545,0.05574969,0.23016545,-0.14497931,0.0,0.0,0,0.950089
0.11915903,0.11225854,-0.08148999,0.05142532,0.22291653,-0.14497879,0.0,0.0,0,0.941631
0.1182725,0.11329437,-0.081488475,0.047100946,0.21566762,-0.14497826,0.0,0.0,0,0.932354
0.11738577,0.11423364,-0.08148701,0.042776562,0.20841874,-0.14497775,0.0,0.0,0,0.922188
0.116499044,0.11507643,-0.081485584,0.038452167,0.20116988,-0.14497718,0.0,0.0,0,0.911136
0.115612224,0.11582273,-0.08148421,0.03412777,0.19392104,-0.14497666,0.0,0.0,0,0.899205
0.11472531,0.11647239,-0.081482895,0.02980337,0.18667224,-0.14497615,0.0,0.0,0,0.886393
0.11383829,0.11702564,-0.08148162,0.025478963,0.17942345,-0.14497565,0.0,0.0,0,0.872767
0.11295118,0.11748241,-0.08148039,0.021154549,0.17217469,-0.14497513,0.0,0.0,0,0.858416
0.112063885,0.11784254,-0.08147921,0.016830126,0.16492596,-0.14497459,0.0,0.0,0,0.843399
0.11117659,0.11810625,-0.081478074,0.0125057,0.15767726,-0.14497405,0.0,0.0,0,0.827873
0.11028938,0.11827348,-0.081476994,0.008181268,0.1504286,-0.14497353,0.0,0.0,0,0.812024
0.109401986,0.118344076,-0.08147596,0.0038568317,0.14317992,-0.144973,0.0,0.0,0,0.795965
0.1085145,0.11831826,-0.081474975,-0.00046760903,0.1359313,-0.14497247,0.0,0.0,0,0.779906
0.10762701,0.11819595,-0.081474036,-0.004792055,0.1286827,-0.14497195,0.0,0.0,0,0.764041
0.106739424,0.11797708,-0.08147315,-0.009116506,0.12143413,-0.14497143,0.0,0.0,0,0.748534
0.10585175,0.11766172,-0.08147231,-0.013440961,0.11418559,-0.14497091,0.0,0.0,0,0.733559
0.10496406,0.11724981,-0.08147152,-0.017765421,0.10693707,-0.14497039,0.0,0.0,0,0.719267
0.10407629,0.116741404,-0.08147077,-0.022089882,0.09968859,-0.14496987,0.0,0.0,0,0.705771
0.103188515,0.11613658,-0.08147008,-0.026414346,0.09244013,-0.14496931,0.0,0.0,0,0.693205
0.102300644,0.11543513,-0.08146943,-0.030738814,0.0851917,-0.14496881,0.0,0.0,0,0.681609
0.10141268,0.114637196,-0.081468835,-0.03506329,0.07794329,-0.1449683,0.0,0.0,0,0.671020
0.100524805,0.113742836,-0.081468284,-0.039387766,0.0706949,-0.14496778,0.0,0.0,0,0.661506
0.09963675,0.11275192,-0.081467785,-0.04371225,0.063446544,-0.14496724,0.0,0.0,0,0.653007
0.09874888,0.11166452,-0.08146734,-0.048036736,0.05619821,-0.14496674,0.0,0.0,0,0.645554
0.09786091,0.11048063,-0.081466936,-0.052361213,0.048949886,-0.14496617,0.0,0.0,0,0.639088
0.09697294,0.10920018,-0.081466585,-0.0566857,0.041701593,-0.14496565,0.0,0.0,0,0.633563
0.09608488,0.10782331,-0.08146627,-0.06101019,0.034453318,-0.14496511,0.0,0.0,0,0.628928
0.09519692,0.10634981,-0.08146602,-0.06533467,0.02720509,-0.14496456,0.0,0.0,0,0.625120
0.09430885,0.1047799,-0.08146582,-0.06965916,0.019956877,-0.14496405,0.0,0.0,0,0.622075
0.09342079,0.103113495,-0.08146566,-0.073983654,0.012708684,-0.14496352,0.0,0.0,0,0.619730
0.09253273,0.10135053,-0.08146556,-0.07830814,0.005460526,-0.14496298,0.0,0.0,0,0.260488
0.09164467,0.09949108,-0.0814655,-0.08263264,-0.0017875981,-0.14496246,0.0,0.0,0,-0.832773
0.09075661,0.09753514,-0.08146548,-0.08695713,-0.009035698,-0.14496194,0.0,0.0,0,-0.833434
0.089868546,0.095482714,-0.08146551,-0.09128162,-0.01628376,-0.1449614,0.0,0.0,0,-0.833666
0.08898048,0.09333373,-0.081465594,-0.09560611,-0.023531806,-0.14496085,0.0,0.0,0,-0.833555
0.08809252,0.091088325,-0.08146573,-0.09993061,-0.030779833,-0.14496031,0.0,0.0,0,-0.833126
0.08720446,0.08874637,-0.081465915,-0.1042551,-0.038027827,-0.14495976,0.0,0.0,0,-0.832485
0.08631649,0.08630791,-0.08146614,-0.10857959,-0.045275792,-0.14495924,0.0,0.0,0,-0.831671
0.08542852,0.083772905,-0.08146642,-0.11290407,-0.052523725,-0.14495872,0.0,0.0,0,-0.830775
0.08454056,0.08114148,-0.08146675,-0.11722855,-0.05977164,-0.14495821,0.0,0.0,0,-0.829850
0.08365269,0.078413494,-0.08146713,-0.12155304,-0.06701952,-0.14495769,0.0,0.0,0,-0.828973
0.08276482,0.07558902,-0.081467554,-0.12587753,-0.07426739,-0.14495718,0.0,0.0,0,-0.828215
0.08187685,0.07266806,-0.08146803,-0.13020201,-0.08151523,-0.14495665,0.0,0.0,0,-0.827678
0.08098898,0.06965061,-0.081468545,-0.13452649,-0.08876302,-0.14495614,0.0,0.0,0,-0.827439
0.08010121,0.066536605,-0.081469126,-0.13885096,-0.0960108,-0.14495562,0.0,0.0,0,-0.827596
0.079213426,0.063326105,-0.081469744,-0.14317541,-0.10325855,-0.14495508,0.0,0.0,0,-0.828266
0.07832565,0.06001912,-0.081470415,-0.14749987,-0.110506274,-0.14495456,0.0,0.0,0,-0.829580
0.077437975,0.056615647,-0.08147114,-0.15182437,-0.117753975,-0.14495406,0.0,0.0,0,-0.831662
0.07655039,0.053115617,-0.081471905,-0.15614884,-0.12500165,-0.14495356,0.0,0.0,0,-0.834677
0.07566281,0.049519096,-0.08147272,-0.1604733,-0.13224931,-0.14495301,0.0,0.0,0,-0.838810
0.074775316,0.045826014,-0.08147358,-0.16479777,-0.13949694,-0.14495246,0.0,0.0,0,-0.844267
0.07388792,0.04203652,-0.08147449,-0.16912222,-0.14674453,-0.14495192,0.0,0.0,0,-0.851267
0.073000625,0.038150463,-0.08147545,-0.17344666,-0.1539921,-0.14495142,0.0,0.0,0,-0.860076
0.07211342,0.03416785,-0.081476465,-0.17777109,-0.16123965,-0.14495087,0.0,0.0,0,-0.870961
0.07122612,0.030088816,-0.08147752,-0.18209553,-0.16848716,-0.14495033,0.0,0.0,0,-0.884263
0.07033901,0.025913224,-0.081478626,-0.18641996,-0.17573464,-0.14494981,0.0,0.0,0,-0.900263
0.069451906,0.021641074,-0.08147977,-0.1907444,-0.1829821,-0.14494927,0.0,0.0,0,13.819977
0.068620965,0.018109068,-0.09390557,-0.15567571,-0.17217058,0.2161859,1.0,0.0,1,4.787396
0.06782637,0.015241895,-0.11060593,-0.12412449,-0.14099985,0.6234547,1.0,0.0,1,4.886464
0.067036435,0.012776838,-0.12366484,-0.10594288,-0.09652431,0.88957727,1.0,0.0,1,3.342838
0.066133596,0.010222444,-0.13587512,-0.11120359,-0.051380336,0.90287983,1.0,0.0,0,-5.651196
0.06523161,0.007597778,-0.13589534,-0.1156982,-0.0062427274,0.90275306,0.0,0.0,0,-3.444198
0.06432972,0.0049029444,-0.13590373,-0.12019322,0.03888852,0.90262604,0.0,0.0,0,10.222341
0.06336518,0.0028651452,-0.123442195,-0.09149587,0.06552607,0.5327034,0.0,1.0,0,1.361833
0.062283516,0.0014075971,-0.11619754,-0.06515152,0.07347565,0.1589852,0.0,1.0,0,2.926693
0.06108446,0.000516603,-0.109080926,-0.039104197,0.062759496,-0.21433783,0.0,1.0,0,3.401526
0.059805583,-1.51896475e-05,-0.10415151,-0.022808336,0.03928393,-0.46952423,0.0,1.0,0,3.172722
0.058499146,-0.00047341824,-0.10229298,-0.019862415,0.011277424,-0.56014526,0.0,1.0,0,11.692266
0.05741749,-0.00041065455,-0.09817514,0.0028347946,0.0014243145,-0.19704784,1.0,1.0,0,0.388908
0.056440543,-0.0002382779,-0.09634407,0.0076601007,8.1089485e-05,-0.026859796,1.0,1.0,0,0.071175
0.055470657,-0.00014529466,-0.0962545,0.0041328906,-0.0006444649,-0.014507415,1.0,1.0,0,0.103265
0.05450783,-0.00013163328,-0.096164644,0.0006075132,-0.0007512969,-0.0021337653,1.0,1.0,0,0.172585
0.053553868,-0.00013206243,-0.09539501,-1.963589e-05,-0.0007509517,9.213315e-06,1.0,1.0,0,0.186437
0.052609157,-0.00013213397,-0.09447533,-4.350436e-06,-0.00075096777,2.045234e-06,1.0,1.0,0,0.185296
0.051673602,-0.00013213397,-0.09355784,7.213478e-08,-0.00075104425,-2.7352595e-08,1.0,1.0,0,0.184286
0.050747205,-0.00013213397,-0.092641294,2.9077507e-08,-0.00075112435,-1.1203926e-08,1.0,1.0,0,0.183357
0.04982996,-0.00013213397,-0.091724895,-4.8928213e-09,-0.00075118896,-1.1067985e-09,1.0,1.0,0,0.182444
0.048921872,-0.00013213397,-0.090808496,-6.8619377e-09,-0.00075123564,5.7570173e-12,1.0,1.0,0,0.181529
0.048022937,-0.00013213397,-0.08989208,-3.779729e-09,-0.0007512821,3.0972385e-09,1.0,1.0,3,0.969124
0.04721584,-0.00013213397,-0.080707915,-4.3808484e-07,-0.00075130764,2.1196236e-07,1.0,1.0,3,1.287037
0.04653368,-0.00013213397,-0.06821965,8.6606747e-07,-0.0007513581,-4.0682244e-07,1.0,1.0,0,0.158908
0.04586067,-0.00013213397,-0.06730355,-4.1898372e-07,-0.0007513765,2.0542271e-07,1.0,1.0,0,0.158017
0.04519682,-0.00013213397,-0.06638721,-1.2822051e-08,-0.0007514047,8.920199e-09,1.0,1.0,0,0.157118
0.044542123,-0.00013213397,-0.06547071,6.6568946e-09,-0.0007514171,-6.5000266e-10,1.0,1.0,0,0.156194
0.04389658,-0.00013213397,-0.0645543,6.429873e-09,-0.00075143675,-2.2370657e-11,1.0,1.0,0,0.155278
0.043260194,-0.00013213397,-0.06363789,3.6345231e-09,-0.0007514488,3.6046408e-09,1.0,1.0,0,0.154363
0.04263296,-0.00013213397,-0.062721476,6.8958794e-10,-0.0007514599,6.8497377e-09,1.0,1.0,0,0.153447
0.042014886,-0.00013213397,-0.061805062,-1.3696314e-09,-0.00075147103,5.535946e-09,1.0,1.0,0,0.152532
0.041405965,-0.00013213397,-0.060888655,-1.5465369e-09,-0.00075148075,5.3905866e-09,1.0,1.0,0,0.151617
0.040806197,-0.00013213397,-0.059972245,-6.3927624e-10,-0.0007514837,6.2487002e-09,1.0,1.0,0,0.150691
0.040215682,-0.00013213397,-0.059055835,2.5447847e-10,-0.00075149524,-2.347019e-09,1.0,1.0,0,0.149776
0.039634325,-0.00013213397,-0.058139425,7.923238e-10,-0.0007514982,6.1092877e-09,1.0,1.0,0,0.148860
0.03906212,-0.00013213397,-0.057223015,1.212912e-09,-0.00075150863,5.1947207e-09,1.0,1.0,0,0.147945
0.03849907,-0.00013213397,-0.056306608,1.0789478e-09,-0.00075151096,2.91679e-09,1.0,1.0,3,0.881117
0.03802233,-0.00013220549,-0.04767224,-3.1730704e-06,-0.0007514442,1.4909638e-06,1.0,1.0,3,1.131975
0.037658118,-0.00013213397,-0.03641662,3.1601523e-06,-0.00075151713,-1.4830686e-06,1.0,1.0,0,0.127082
0.037303068,-0.00013213397,-0.035500836,3.4055336e-08,-0.00075152767,-1.2862159e-08,1.0,1.0,0,0.126212
0.036957264,-0.00013213397,-0.034584515,-2.151914e-08,-0.00075153075,2.6049112e-09,1.0,1.0,0,0.125304
0.036620617,-0.00013213397,-0.033668116,-6.6777597e-09,-0.0007515332,8.1282014e-10,1.0,1.0,0,0.124390
0.036293127,-0.00013213397,-0.0327517,5.227142e-09,-0.0007515356,1.0279677e-09,1.0,1.0,0,0.123474
0.03597479,-0.00013213397,-0.031835288,6.4766246e-09,-0.000751538,1.8179834e-10,1.0,1.0,0,0.122558
0.03566561,-0.00013213397,-0.030918878,6.1156573e-09,-0.00075154187,9.699185e-10,1.0,1.0,0,0.121643
0.03536558,-0.00013213397,-0.03000247,5.2340274e-09,-0.00075154495,1.8501769e-09,1.0,1.0,0,0.120728
0.03507471,-0.00013213397,-0.029086059,4.8113407e-09,-0.0007515473,2.108409e-09,1.0,1.0,0,0.119812
0.034792997,-0.00013213397,-0.02816965,4.342168e-09,-0.00075154897,1.2153966e-09,1.0,1.0,0,0.118896
0.034520436,-0.00013213397,-0.02725324,3.8596877e-09,-0.0007515521,4.7564847e-10,1.0,1.0,0,0.117981
0.034257032,-0.00013213397,-0.02633683,3.377228e-09,-0.00075155456,4.7574705e-10,1.0,1.0,0,0.117065
0.03400278,-0.00013213397,-0.025420422,2.8947684e-09,-0.00075155695,4.7575954e-10,1.0,1.0,0,0.116141
0.033757783,-0.00013213397,-0.02450401,2.4123052e-09,-0.0007515586,3.8789208e-10,1.0,1.0,0,0.115225
0.03352194,-0.00013213397,-0.0235876,1.815875e-09,-0.0007515617,5.914518e-11,1.0,1.0,0,0.114310
0.03329525,-0.00013213397,-0.02267119,1.3201331e-09,-0.00075156405,8.342723e-10,1.0,1.0,0,0.113394
0.033077717,-0.00013213397,-0.021754777,8.376758e-10,-0.0007515664,9.81583e-10,1.0,1.0,0,0.112479
0.03286934,-0.00013213397,-0.020838367,3.5521322e-10,-0.00075156795,8.343707e-10,1.0,1.0,0,0.111563
0.032670118,-0.00013213397,-0.019921955,-1.272428e-10,-0.00075157103,1.0112328e-09,1.0,1.0,0,0.110647
0.03248005,-0.00013213397,-0.019005544,-5.9642674e-10,-0.0007515734,-5.818988e-11,1.0,1.0,0,0.109732
0.03229914,-0.00013213397,-0.018089134,-1.0921632e-09,-0.00075157575,1.0113771e-09,1.0,1.0,0,0.108816
0.03212738,-0.00013213397,-0.017172722,-1.5613454e-09,-0.0007515774,-5.8061934e-11,1.0,1.0,0,0.107901
0.03196478,-0.00013213397,-0.016256312,-2.0438031e-09,-0.0007515805,5.943358e-11,1.0,1.0,0,0.106985
0.031811334,-0.00013213397,-0.015339901,-2.5262648e-09,-0.0007515829,-5.7948635e-11,1.0,1.0,0,0.106060
0.031667136,-0.00013213397,-0.01442349,-3.0087226e-09,-0.0007515853,5.9514844e-11,1.0,1.0,0,0.105145
0.031532098,-0.00013213397,-0.013507078,-3.4911842e-09,-0.0007515869,-5.7869775e-11,1.0,1.0,0,0.104229
0.031406213,-0.00013213397,-0.012590667,-3.973643e-09,-0.00075159007,1.2720794e-12,1.0,1.0,0,0.103314
0.03128948,-0.00013213397,-0.011674257,-4.4561044e-09,-0.00075159245,-5.773828e-11,1.0,1.0,0,0.102398
0.031181907,-0.00013213397,-0.010757847,-4.9385624e-09,-0.00075159484,3.0683282e-11,1.0,1.0,0,0.101483
0.031083489,-0.00013213397,-0.0098414365,-5.4210223e-09,-0.00075159647,1.0563431e-12,1.0,1.0,0,0.100567
0.030994225,-0.00013213397,-0.008925025,-5.903485e-09,-0.0007515996,-5.770056e-11,1.0,1.0,0,0.099652
0.030914117,-0.00013213397,-0.008008615,-6.499915e-09,-0.000751602,-4.4466267e-10,1.0,1.0,0,0.098736
0.030843163,-0.00013213397,-0.007092205,-6.7953403e-09,-0.0007516044,-2.0345407e-10,1.0,1.0,0,0.097821
0.030781364,-0.00013213397,-0.006175794,-6.635912e-09,-0.000751606,-1.7014376e-10,1.0,1.0,0,0.096895
0.030728817,-0.00013213397,-0.0052593835,-4.94279e-09,-0.0007516094,-7.263265e-09,1.0,1.0,0,0.095980
0.030685425,-0.00013213397,-0.0043429723,-3.4912349e-09,-0.00075161207,-7.1938935e-09,1.0,1.0,0,0.095065
0.030651188,-0.00013213397,-0.0034265616,-2.157765e-09,-0.0007516144,2.5007507e-10,1.0,1.0,0,0.094149
0.030626107,-0.00013213397,-0.002510151,-4.8243437e-10,-0.00075161585,3.5695333e-09,1.0,1.0,0,0.093233
0.03061018,-0.00013213397,-0.00159374,9.649568e-10,-0.00075161865,4.1463846e-09,1.0,1.0,0,0.092318
0.030603409,-0.00013213397,-0.0006773292,2.4123417e-09,-0.0007516207,5.632052e-09,1.0,1.0,0,0.059672
0.030604172,-0.00013213397,7.862681e-05,-1.0001243e-08,-0.0007528404,-2.3610804e-05,1.0,1.0,0,-0.020275
0.030606937,-0.00013213397,0.00027437982,-3.4706137e-08,-0.00075707305,-8.2396335e-05,1.0,1.0,0,0.011624
0.030608367,-0.00013213397,0.00015434365,-2.1897298e-08,-0.00075944036,-4.63502e-05,1.0,1.0,0,0.014281
0.030608464,-0.00013213397,1.1263097e-05,-1.5586921e-09,-0.00075961393,-3.382212e-06,1.0,1.0,0,-0.003087
0.030607987,-0.00013213397,-4.3275788e-05,6.183056e-09,-0.00075894553,1.2996641e-05,1.0,1.0,0,0.001195
0.0306077,-0.00013213397,-3.2112748e-05,4.6554494e-09,-0.000758444,9.643783e-06,1.0,1.0,0,0.002544
0.030607605,-0.00013213397,-6.8776744e-06,8.263375e-10,-0.0007583384,2.0646644e-06,1.0,1.0,0,0.000065
0.0306077,-0.00013213397,6.026466e-06,-9.689766e-10,-0.0007584428,-1.8117473e-06,1.0,1.0,0,-0.000039
0.030607795,-0.00013213397,6.2145823e-06,-8.396616e-10,-0.0007585499,-1.8694784e-06,1.0,1.0,0,0.000408
0.030607795,-0.00013213397,2.102312e-06,-4.5317539e-10,-0.00075858406,-6.349126e-07,1.0,1.0,0,0.000146
0.030607795,-0.00013213397,-6.614464e-07,3.1980474e-10,-0.0007585642,2.0991936e-07,1.0,1.0,0,-0.000044
0.030607795,-0.00013213397,-1.1251948e-06,7.820456e-10,-0.0007585443,3.4586765e-07,1.0,1.0,0,0.000060
0.030607795,-0.00013213397,-5.232634e-07,-4.485597e-11,-0.0007585419,1.5743396e-07,1.0,1.0,0,0.000049
0.030607795,-0.00013213397,2.7509e-08,4.4579007e-11,-0.000758549,-1.7736237e-08,1.0,1.0,0,-0.000017
0.030607795,-0.00013213397,1.9188883e-07,8.374507e-11,-0.000758557,-4.930364e-08,1.0,1.0,0,0.000006
0.030607795,-0.00013213397,1.1896507e-07,-6.650196e-11,-0.0007585668,-5.5885796e-08,1.0,1.0,0,0.000009
0.030607795,-0.00013213397,1.8556676e-08,1.623184e-12,-0.00075857394,-1.9026054e-08,1.0,1.0,0,-0.000001
0.030607795,-0.00013213397,-2.8274766e-08,3.8839622e-11,-0.0007585783,2.2633195e-08,1.0,1.0,0,-0.000000
0.030607795,-0.00013213397,-2.6436572e-08,4.7354533e-11,-0.0007585843,1.7961804e-08,1.0,1.0,0,0.000001
0.030607795,-0.00013213397,-1.2768789e-08,1.7245334e-10,-0.0007585893,2.277574e-08,1.0,1.0,0,0.000001
0.030607795,-0.00013213397,7.8638396e-10,2.2792751e-10,-0.0007585947,-3.5972167e-10,1.0,1.0,0,-0.000002
0.030607795,-0.00013213397,1.0148477e-08,-1.8706209e-10,-0.0007586028,-2.3998064e-08,1.0,1.0,0,100
0.007960796,1.4054062,0.8063296,-0.24507912,-0.009217809,-0.18264562,0.0,0.0,0,-0.343278
0.01592188,1.3998194,0.8052395,-0.24838762,-0.018243143,-0.18052335,0.0,0.0,0,-0.476694
0.023883343,1.3941362,0.80526716,-0.25272942,-0.027262982,-0.18041363,0.0,0.0,0,-0.473149
0.031845093,1.3883567,0.8052931,-0.25706023,-0.036281615,-0.18038943,0.0,0.0,0,-0.470040
0.03980713,1.3824811,0.8053194,-0.26138785,-0.045298807,-0.18036035,0.0,0.0,0,-0.467041
0.04776945,1.3765091,0.80534583,-0.26571518,-0.054314516,-0.18033117,0.0,0.0,0,-0.464128
0.05573206,1.3704412,0.8053721,-0.27004275,-0.06332877,-0.18030205,0.0,0.0,0,-0.461230
0.06369505,1.3642769,0.80539817,-0.27437058,-0.07234158,-0.18027301,0.0,0.0,0,-0.458411
0.07165842,1.3580165,0.8054241,-0.27869865,-0.08135296,-0.18024404,0.0,0.0,0,-0.455676
0.079622075,1.35166,0.80544984,-0.28302705,-0.09036288,-0.1802152,0.0,0.0,0,-0.452994
0.08758602,1.3452073,0.8054754,-0.2873557,-0.09937136,-0.18018639,0.0,0.0,0,-0.450371
0.09555044,1.3386585,0.8055008,-0.29168457,-0.108378425,-0.18015775,0.0,0.0,0,-0.447834
0.10351515,1.3320135,0.80552596,-0.2960137,-0.11738406,-0.18012916,0.0,0.0,0,-0.445360
0.111480236,1.3252722,0.80555093,-0.30034313,-0.12638827,-0.1801007,0.0,0.0,0,-0.442982
0.119445704,1.3184347,0.8055757,-0.3046728,-0.13539107,-0.18007234,0.0,0.0,0,-0.440668
0.12741145,1.311501,0.80560035,-0.30900276,-0.14439245,-0.18004414,0.0,0.0,0,-0.438459
0.1353776,1.3044713,0.8056248,-0.31333295,-0.15339242,-0.180016,0.0,0.0,0,-0.436316
0.14334412,1.2973452,0.8056489,-0.31766337,-0.16239098,-0.17998794,0.0,0.0,0,-0.434295
0.15131111,1.290123,0.8056728,-0.3219941,-0.17138816,-0.17995998,0.0,0.0,0,-0.432350
0.1592784,1.2828045,0.8056966,-0.32632503,-0.18038394,-0.1799321,0.0,0.0,0,-0.430506
0.16724615,1.2753897,0.80572003,-0.33065623,-0.18937835,-0.17990443,0.0,0.0,0,-0.428769
0.1752142,1.2678787,0.80574334,-0.33498767,-0.19837138,-0.17987677,0.0,0.0,0,-0.427138
0.1831828,1.2602713,0.8057663,-0.33931935,-0.20736302,-0.17984928,0.0,0.0,1,0.822733
0.19106627,1.2525982,0.7950204,-0.34197417,-0.21411172,-0.13498609,0.0,0.0,1,1.173046
0.19885664,1.2448666,0.7832645,-0.34425214,-0.21839112,-0.08559626,0.0,0.0,1,1.377549
0.20654717,1.2370677,0.7712747,-0.34694588,-0.22063386,-0.044853903,0.0,0.0,1,1.217916
0.21417503,1.2291768,0.7628775,-0.35072008,-0.220732,-0.0019627342,0.0,0.0,1,1.786094
0.22171172,1.2212219,0.75140435,-0.35321084,-0.21843688,0.045902096,0.0,0.0,1,1.544711
0.22918987,1.2131934,0.7440121,-0.35626233,-0.21459265,0.07688454,0.0,0.0,1,2.216420
0.23657236,1.2050943,0.73199546,-0.35906738,-0.20827535,0.12634578,0.0,0.0,1,2.347123
0.24386625,1.1969197,0.72087145,-0.36215124,-0.19968201,0.17186645,0.0,0.0,1,2.519741
0.25107583,1.1886718,0.7102452,-0.36516196,-0.18890485,0.21554334,0.0,0.0,1,2.358289
0.25822696,1.1803437,0.7028669,-0.36862013,-0.17661525,0.24579184,0.0,0.0,1,2.663621
0.26530838,1.1719375,0.69407505,-0.37200087,-0.16253006,0.28170344,0.0,0.0,1,2.922883
0.27231246,1.1634464,0.6843506,-0.37570605,-0.1464857,0.3208869,0.0,0.0,1,2.941997
0.27925318,1.1548774,0.67633736,-0.37919864,-0.12880827,0.3535489,0.0,0.0,1,3.267047
0.28611583,1.1462189,0.66650873,-0.3832301,-0.109165214,0.39286175,0.0,0.0,1,3.714661
0.292883,1.1374818,0.6544819,-0.38683563,-0.08709893,0.44132543,0.0,0.0,1,3.582171
0.29958,1.1286552,0.64561546,-0.39106157,-0.06326138,0.476751,0.0,0.0,0,2.843574
0.30627728,1.119739,0.64561,-0.39542928,-0.039424784,0.47673234,0.0,0.0,0,2.843431
0.31297475,1.110733,0.64560634,-0.39979708,-0.015589117,0.47671375,0.0,0.0,0,1.194028
0.3196723,1.1016374,0.6456044,-0.40416488,0.008245631,0.47669512,0.0,0.0,0,-1.924086
0.32636967,1.0924522,0.6456041,-0.4085327,0.032079466,0.47667646,0.0,0.0,0,-1.924537
0.33306694,1.0831774,0.64560556,-0.41290054,0.05591234,0.47665787,0.0,0.0,0,-1.925133
0.33976394,1.0738128,0.6456088,-0.41726837,0.079744294,0.47663918,0.0,0.0,0,-1.925923
0.34646043,1.0643587,0.6456136,-0.42163607,0.10357532,0.4766205,0.0,0.0,0,-1.926890
0.3531564,1.0548149,0.64562017,-0.42600372,0.1274054,0.4766019,0.0,0.0,0,-1.928041
0.35985175,1.0451813,0.64562833,-0.43037122,0.15123457,0.47658324,0.0,0.0,0,-1.929428
0.36654645,1.0354581,0.64563835,-0.4347386,0.17506279,0.4765646,0.0,0.0,0,-1.930995
0.37324017,1.0256453,0.64564997,-0.43910584,0.19889008,0.476546,0.0,0.0,0,-1.932756
0.37993297,1.0157424,0.64566326,-0.44347286,0.22271642,0.4765273,0.0,0.0,0,-1.934766
0.38662452,1.0057498,0.6456783,-0.44783965,0.24654184,0.47650868,0.0,0.0,0,-1.936986
0.39331493,0.99566734,0.645695,-0.45220616,0.27036634,0.47648996,0.0,0.0,0,-1.939436
0.4000039,0.9854948,0.64571327,-0.4565724,0.2941899,0.47647133,0.0,0.0,0,-1.942150
0.40669146,0.9752323,0.6457333,-0.46093833,0.31801254,0.47645274,0.0,0.0,0,-1.945114
0.41337737,0.9648799,0.64575493,-0.46530393,0.34183425,0.47643408,0.0,0.0,0,-1.948325
0.42006168,0.95443714,0.64577824,-0.4696692,0.36565503,0.4764155,0.0,0.0,2,4.825655
0.42630005,0.9452836,0.60176873,-0.41263637,0.38907763,0.46845207,0.0,0.0,2,3.660748
0.43213263,0.93711966,0.5618291,-0.36886698,0.41203436,0.45913452,0.0,0.0,2,-0.371927
0.43790063,0.9294937,0.5551266,-0.34542978,0.43550095,0.46933156,0.0,0.0,0,-2.131712
0.44366655,0.9217771,0.5551553,-0.3497921,0.45896664,0.4693137,0.0,0.0,0,-2.132696
0.44943038,0.91396993,0.55518544,-0.354154,0.48243144,0.4692959,0.0,0.0,0,-2.133812
0.455192,0.90607196,0.555217,-0.35851535,0.5058953,0.469278,0.0,0.0,0,-2.135113
0.46095124,0.8980834,0.55525005,-0.36287624,0.52935827,0.46926016,0.0,0.0,2,4.819439
0.4661563,0.8911111,0.50052917,-0.31785986,0.55234236,0.459682,0.0,0.0,0,-2.154363
0.47135895,0.8840475,0.50056356,-0.3222181,0.5753256,0.45966524,0.0,0.0,0,-2.154693
0.47655907,0.8768927,0.50059927,-0.32657573,0.598308,0.45964852,0.0,0.0,0,-2.155160
0.4817565,0.86964643,0.5006362,-0.3309328,0.6212896,0.45963183,0.0,0.0,0,-2.155745
0.48695117,0.8623086,0.5006745,-0.3352893,0.64427036,0.45961508,0.0,0.0,0,-2.156488
0.49214306,0.85487926,0.50071394,-0.33964524,0.6672503,0.4595984,0.0,0.0,2,4.378587
0.49674892,0.84816784,0.44290352,-0.30777064,0.6896567,0.44812775,0.0,0.0,0,-2.141737
0.50135195,0.8413642,0.44294333,-0.3121236,0.7120623,0.44811225,0.0,0.0,0,-2.141660
0.505952,0.8344687,0.44298425,-0.31647593,0.73446715,0.44809675,0.0,0.0,0,-2.141668
0.51054925,0.8274807,0.4430263,-0.32082766,0.7568712,0.4480812,0.0,0.0,0,-2.141805
0.5151433,0.8204005,0.44306937,-0.32517877,0.77927446,0.4480657,0.0,0.0,2,2.772970
0.5193081,0.81392044,0.4004186,-0.29878876,0.8017754,0.45001918,0.0,0.0,2,2.260421
0.52299327,0.8076924,0.3533697,-0.287451,0.8235076,0.4346446,0.0,0.0,0,-2.123842
0.5266755,0.8013713,0.35341313,-0.29179844,0.8452391,0.43463045,0.0,0.0,0,-2.122775
0.5303545,0.7949571,0.3534574,-0.29614517,0.86697,0.43461627,0.0,0.0,0,-2.121799
0.5340303,0.78845,0.35350254,-0.3004913,0.8887001,0.4346021,0.0,0.0,2,4.808858
0.53705853,0.7826826,0.28904337,-0.2678778,0.91054434,0.43688434,0.0,0.0,2,2.462586
0.539666,0.7774693,0.24710946,-0.24366005,0.93278015,0.44471622,0.0,0.0,2,0.808639
0.5419456,0.7725108,0.21474037,-0.23251447,0.95498395,0.4440774,0.0,0.0,0,-2.262570
0.5442215,0.767459,0.21479094,-0.23685892,0.97718704,0.44406232,0.0,0.0,0,-2.259676
0.5464938,0.7623133,0.21484224,-0.24120261,0.9993894,0.4440472,0.0,0.0,2,0.642749
0.5484192,0.75736785,0.18061945,-0.23243836,1.0214942,0.44209448,0.0,0.0,2,2.551855
0.54971486,0.7527709,0.11823752,-0.21691471,1.0432501,0.43511757,0.0,0.0,2,2.021592
0.5504612,0.7486875,0.06355045,-0.19445975,1.0653529,0.44205767,0.0,0.0,0,-2.332756
0.55120385,0.7445097,0.06360425,-0.19880013,1.087455,0.44204277,0.0,0.0,0,-2.326661
0.5519425,0.7402379,0.06365871,-0.20313972,1.1095564,0.44202787,0.0,0.0,2,0.302827
0.5518073,0.73632306,-0.02305235,-0.18709831,1.1311123,0.43111712,0.0,0.0,2,-3.305855
0.5508504,0.73275936,-0.10463488,-0.17139082,1.152302,0.42379394,0.0,0.0,2,-5.277934
0.549215,0.72951525,-0.17203179,-0.1572527,1.1733898,0.42175445,0.0,0.0,0,-2.034253
0.54757607,0.72617596,-0.17198008,-0.16158761,1.1944768,0.42174158,0.0,0.0,3,-1.287463
0.54595864,0.7228264,-0.16869526,-0.16089484,1.2135612,0.38168615,0.0,0.0,3,-0.808904
0.54437494,0.7194935,-0.16405486,-0.15852347,1.2299538,0.32785174,0.0,0.0,3,-0.826266
0.54280794,0.716158,-0.16144691,-0.15734378,1.2442147,0.2852181,0.0,0.0,3,-0.710316
0.54125196,0.71281284,-0.15953714,-0.1565684,1.2565308,0.24632208,0.0,0.0,3,-0.347348
0.53972024,0.70946705,-0.15627162,-0.15517847,1.2665952,0.2012901,0.0,0.0,0,-0.945550
0.5381877,0.7060245,-0.15625942,-0.15950108,1.2766597,0.20128866,0.0,0.0,0,-0.941988
0.5366543,0.70248514,-0.15624717,-0.1638236,1.2867241,0.20128722,0.0,0.0,3,-0.207152
0.5351426,0.6989349,-0.15341939,-0.16300945,1.2947699,0.16091672,0.0,0.0,3,-0.073071
0.53364384,0.6953751,-0.15154296,-0.16216432,1.3008378,0.12135756,0.0,0.0,3,0.573931
0.5321764,0.6918504,-0.14754382,-0.1585971,1.3038237,0.05972016,0.0,0.0,0,-0.240305
0.5307089,0.68822855,-0.14754273,-0.16291732,1.3068097,0.05972011,0.0,0.0,0,-0.236575
0.5292414,0.68450946,-0.14754163,-0.16723752,1.3097956,0.059720077,0.0,0.0,0,-0.232695
0.5277737,0.6806933,-0.14754055,-0.1715577,1.3127816,0.05972005,0.0,0.0,3,0.466175
0.5263178,0.67687184,-0.14582571,-0.17044006,1.3136959,0.01828552,0.0,0.0,3,0.849769
0.5248786,0.67306525,-0.14350146,-0.1681121,1.3120656,-0.032606192,0.0,0.0,0,0.228958
0.5234393,0.6691617,-0.14350113,-0.17243217,1.3104353,-0.032606203,0.0,0.0,0,0.233027
0.522,0.66516066,-0.1435008,-0.17675224,1.308805,-0.0326062,0.0,0.0,0,0.237177
0.52056074,0.66106266,-0.14350048,-0.1810723,1.3071747,-0.032606207,0.0,0.0,3,1.092641
0.5191348,0.6569787,-0.14149565,-0.17882265,1.3030461,-0.082570866,0.0,0.0,3,1.309844
0.5177226,0.65290374,-0.13945219,-0.17686282,1.2965238,-0.13044505,0.0,0.0,3,1.448615
0.51632136,0.64882654,-0.13771221,-0.1755922,1.2878761,-0.17295304,0.0,0.0,0,0.937452
0.5149196,0.6446523,-0.13770309,-0.17991394,1.2792286,-0.17295216,0.0,0.0,0,0.941692
0.5135171,0.6403812,-0.13769399,-0.18423574,1.2705811,-0.17295128,0.0,0.0,3,1.824927
0.51213753,0.63611686,-0.13460201,-0.1824052,1.2595333,-0.22095625,0.0,0.0,3,2.208443
0.5107807,0.6318797,-0.13129458,-0.17942381,1.2456596,-0.27747446,0.0,0.0,0,1.460480
0.5094222,0.62754595,-0.1312714,-0.18374892,1.231786,-0.27747077,0.0,0.0,0,1.464803
0.5080622,0.62311596,-0.13124834,-0.1880742,1.2179127,-0.27746707,0.0,0.0,0,1.469219
0.50670063,0.61858964,-0.1312254,-0.19239971,1.2040395,-0.27746338,0.0,0.0,3,2.194832
0.5053563,0.61405206,-0.12856284,-0.19171348,1.1882112,-0.3165654,0.0,0.0,3,2.639567
0.50403583,0.60953206,-0.12493744,-0.18938948,1.1697854,-0.36851543,0.0,0.0,0,1.921725
0.5027126,0.6049165,-0.124897674,-0.1937204,1.15136,-0.36850685,0.0,0.0,0,1.926177
0.50138676,0.6002056,-0.1248582,-0.19805187,1.1329352,-0.3684982,0.0,0.0,0,1.930700
0.50005805,0.5953993,-0.124819055,-0.20238379,1.1145107,-0.3684896,0.0,0.0,0,1.935251
0.49872667,0.5904979,-0.12478025,-0.20671621,1.0960866,-0.36848098,0.0,0.0,0,1.939836
0.49739265,0.58550143,-0.12474178,-0.21104908,1.077663,-0.36847237,0.0,0.0,0,1.944457
0.4960559,0.5804098,-0.12470368,-0.21538243,1.0592397,-0.3684637,0.0,0.0,0,1.949075
0.49471664,0.5752232,-0.12466596,-0.21971624,1.040817,-0.3684551,0.0,0.0,2,0.193711
0.4928589,0.5703425,-0.17613846,-0.20615506,1.0222552,-0.37123588,0.0,0.0,2,0.186745
0.49047166,0.5661632,-0.22923347,-0.17557673,1.004517,-0.3547656,0.0,0.0,0,1.990332
0.4880821,0.561889,-0.2291996,-0.17991081,0.9867791,-0.35475785,0.0,0.0,0,1.993385
0.4856903,0.5575197,-0.22916612,-0.18424527,0.9690416,-0.35475016,0.0,0.0,0,1.996506
0.483296,0.5530557,-0.22913304,-0.18858013,0.95130444,-0.35474247,0.0,0.0,0,1.999680
0.4808995,0.54849696,-0.22910035,-0.1929154,0.9335677,-0.35473478,0.0,0.0,2,-0.688135
0.47810143,0.544092,-0.26869556,-0.1859452,0.9153493,-0.36436823,0.0,0.0,2,-1.740284
0.4747073,0.5403073,-0.3280903,-0.15855119,0.8972046,-0.36289492,0.0,0.0,0,2.142167
0.4713109,0.53642815,-0.32805744,-0.16288835,0.87906027,-0.36288673,0.0,0.0,0,2.145158
0.4679122,0.53245467,-0.32802504,-0.16722591,0.8609163,-0.3628785,0.0,0.0,0,2.148206
0.46451122,0.5283869,-0.3279931,-0.17156386,0.8427728,-0.3628703,0.0,0.0,2,-1.933406
0.4604992,0.5254039,-0.38944224,-0.123913154,0.8254684,-0.3460877,0.0,0.0,0,2.095435
0.4564851,0.52232647,-0.3894141,-0.12825017,0.8081644,-0.34608057,0.0,0.0,0,2.098286
0.45246917,0.5191546,-0.3893864,-0.13258749,0.7908608,-0.3460734,0.0,0.0,0,2.101200
0.44845134,0.5158883,-0.38935918,-0.13692513,0.7735575,-0.34606627,0.0,0.0,0,2.104165
0.4444317,0.51252764,-0.3893324,-0.14126308,0.75625455,-0.34605914,0.0,0.0,0,2.107204
0.44041014,0.5090726,-0.38930613,-0.14560133,0.738952,-0.34605196,0.0,0.0,0,2.110277
0.43638688,0.5055234,-0.38928032,-0.14993988,0.72164977,-0.3460448,0.0,0.0,0,2.113408
0.4323619,0.50187993,-0.389255,-0.15427874,0.7043479,-0.3460377,0.0,0.0,0,2.116604
0.4283351,0.4981423,-0.38923013,-0.1586179,0.6870464,-0.34603053,0.0,0.0,0,2.119845
0.4243067,0.49431053,-0.38920575,-0.16295733,0.66974527,-0.34602338,0.0,0.0,0,2.123134
0.42027655,0.4903848,-0.3891819,-0.16729704,0.6524445,-0.34601623,0.0,0.0,0,2.126475
0.41624498,0.4863649,-0.3891586,-0.17163701,0.63514405,-0.34600908,0.0,0.0,0,2.129880
0.41221172,0.48225105,-0.3891358,-0.17597726,0.617844,-0.34600192,0.0,0.0,0,2.133323
0.4081769,0.47804326,-0.38911355,-0.18031779,0.6005443,-0.3459948,0.0,0.0,0,2.136815
0.40414065,0.47374156,-0.3890918,-0.18465856,0.5832449,-0.34598768,0.0,0.0,0,2.140369
0.4001029,0.46934596,-0.38907063,-0.18899958,0.56594586,-0.34598053,0.0,0.0,0,2.143949
0.3960638,0.4648566,-0.38905,-0.19334082,0.54864717,-0.34597343,0.0,0.0,0,2.147583
0.39202327,0.4602735,-0.38902992,-0.1976823,0.5313488,-0.34596628,0.0,0.0,0,2.151272
0.38798133,0.4555966,-0.38901037,-0.20202401,0.51405084,-0.34595913,0.0,0.0,1,0.950438
0.38386545,0.45077077,-0.3982239,-0.20952395,0.4989494,-0.30202866,0.0,0.0,1,1.028088
0.37969074,0.44581628,-0.40544167,-0.21589567,0.4854872,-0.26924437,0.0,0.0,0,1.797035
0.37551546,0.44076678,-0.4054308,-0.22022918,0.47202516,-0.26924103,0.0,0.0,0,1.801128
0.3713394,0.43562216,-0.4054202,-0.22456278,0.45856327,-0.26923767,0.0,0.0,0,1.805236
0.3671627,0.43038255,-0.4054099,-0.22889647,0.44510156,-0.26923427,0.0,0.0,0,1.809396
0.36298522,0.42504787,-0.40539986,-0.23323026,0.43164003,-0.2692309,0.0,0.0,0,1.813570
0.3588071,0.41961825,-0.4053901,-0.23756415,0.41817865,-0.26922753,0.0,0.0,0,1.817781
0.35462826,0.41409352,-0.40538067,-0.24189812,0.40471745,-0.26922414,0.0,0.0,0,1.822009
0.3504489,0.4084739,-0.4053715,-0.24623218,0.3912564,-0.2692208,0.0,0.0,3,3.175459
0.34635657,0.40282318,-0.39418688,-0.24708581,0.375225,-0.32062784,0.0,0.0,3,2.892996
0.34232217,0.39710155,-0.38679034,-0.25002536,0.35762447,-0.35201064,0.0,0.0,3,3.144171
0.33835047,0.3913213,-0.3787438,-0.25242975,0.33826107,-0.3872687,0.0,0.0,3,3.695738
0.33446455,0.38550568,-0.3676344,-0.25371304,0.31641787,-0.43686444,0.0,0.0,0,2.637679
0.33057746,0.3795989,-0.3676149,-0.25807124,0.2945754,-0.43685,0.0,0.0,0,2.641404
0.32668906,0.37360096,-0.3675967,-0.26242974,0.27273363,-0.43683568,0.0,0.0,0,2.645123
0.3227995,0.367512,-0.36757973,-0.26678845,0.25089258,-0.4368213,0.0,0.0,0,2.648827
0.318909,0.3613319,-0.36756405,-0.2711474,0.22905225,-0.43680686,0.0,0.0,0,2.652517
0.31501752,0.35506082,-0.36754963,-0.2755066,0.20721264,-0.43679252,0.0,0.0,0,2.656188
0.3111251,0.34869877,-0.36753654,-0.279866,0.18537374,-0.43677822,0.0,0.0,0,2.659829
0.307232,0.34224567,-0.3675247,-0.28422558,0.16353557,-0.43676385,0.0,0.0,0,2.663431
0.30333814,0.3357017,-0.3675142,-0.28858534,0.1416981,-0.43674955,0.0,0.0,0,2.666996
0.29944372,0.32906678,-0.36750498,-0.29294524,0.119861364,-0.4367352,0.0,0.0,0,2.670499
0.29554883,0.32234097,-0.3674971,-0.29730523,0.098025344,-0.43672085,0.0,0.0,0,2.673929
0.29165363,0.31552428,-0.36749053,-0.30166537,0.076190025,-0.43670648,0.0,0.0,0,2.677314
0.28775796,0.3086167,-0.36748526,-0.30602556,0.05435543,-0.43669215,0.0,0.0,2,5.789566
0.28382826,0.30303755,-0.3709605,-0.24730821,0.03260228,-0.43506297,0.0,0.0,2,3.171178
0.27979392,0.29809284,-0.38098606,-0.2194247,0.010440559,-0.4432346,0.0,0.0,2,0.795688
0.27571544,0.2936296,-0.38520843,-0.19835751,-0.01190578,-0.4469269,0.0,0.0,0,-1.824855
0.27163705,0.28907585,-0.38520843,-0.20271978,-0.03425135,-0.44691148,0.0,0.0,0,-1.821755
0.26755887,0.2844316,-0.38520986,-0.20708203,-0.05659616,-0.44689614,0.0,0.0,0,-1.818603
0.26348096,0.2796967,-0.3852127,-0.21144424,-0.0789402,-0.44688073,0.0,0.0,0,-1.815424
0.25940332,0.27487123,-0.38521692,-0.21580642,-0.10128345,-0.44686532,0.0,0.0,0,-1.812224
0.25532618,0.26995513,-0.3852226,-0.22016852,-0.123625934,-0.4468499,0.0,0.0,0,-1.808998
0.2512496,0.2649484,-0.38522965,-0.22453049,-0.14596765,-0.44683462,0.0,0.0,0,-1.805760
0.24717359,0.25985107,-0.38523814,-0.22889237,-0.16830863,-0.44681925,0.0,0.0,0,-1.802505
0.24309835,0.2546631,-0.385248,-0.2332541,-0.19064881,-0.44680387,0.0,0.0,2,1.964703
0.23918362,0.25067404,-0.36926538,-0.18030241,-0.21301669,-0.44735765,0.0,0.0,2,2.523712
0.23554973,0.24784163,-0.3417444,-0.12915806,-0.23493277,-0.4383215,0.0,0.0,0,-1.887063
0.23191682,0.24491817,-0.34175795,-0.13351771,-0.2568481,-0.43830696,0.0,0.0,0,-1.885174
0.22828512,0.24190372,-0.34177276,-0.13787718,-0.27876273,-0.43829235,0.0,0.0,0,-1.883170
0.22465448,0.23879816,-0.34178892,-0.14223641,-0.30067664,-0.4382778,0.0,0.0,0,-1.881081
0.22102508,0.23560145,-0.3418063,-0.1465954,-0.3225898,-0.43826327,0.0,0.0,0,-1.878931
0.21739712,0.23231371,-0.34182498,-0.15095411,-0.34450224,-0.43824872,0.0,0.0,1,-2.422415
0.21370173,0.2289709,-0.35051095,-0.1532477,-0.36451706,-0.4002967,0.0,0.0,1,-2.191114
0.20994405,0.2255657,-0.35852733,-0.15583768,-0.38279775,-0.36561316,0.0,0.0,1,-2.029270
0.20611715,0.2221146,-0.36744732,-0.15755635,-0.39905298,-0.32510453,0.0,0.0,0,-1.279640
0.2022913,0.21856958,-0.36746013,-0.16189703,-0.4153079,-0.32509857,0.0,0.0,0,-1.276774
0.19846639,0.21493049,-0.36747342,-0.16623761,-0.43156254,-0.3250926,0.0,0.0,0,-1.273838
0.19464235,0.21119744,-0.36748722,-0.17057802,-0.44781688,-0.32508668,0.0,0.0,0,-1.270837
0.19081946,0.20737024,-0.3675015,-0.17491826,-0.46407092,-0.32508075,0.0,0.0,0,-1.267769
0.1869975,0.20344907,-0.36751628,-0.17925838,-0.48032466,-0.3250748,0.0,0.0,0,-1.264644
0.1831768,0.19943376,-0.36753154,-0.18359832,-0.4965781,-0.3250689,0.0,0.0,0,-1.261452
0.17935705,0.1953244,-0.36754727,-0.18793808,-0.51283133,-0.32506293,0.0,0.0,1,-1.640828
0.17548123,0.19116583,-0.3748323,-0.18969032,-0.5273365,-0.29010272,0.0,0.0,1,-1.440761
0.17155132,0.18695606,-0.38181353,-0.19149736,-0.5401552,-0.2563739,0.0,0.0,1,-1.334719
0.16754866,0.18272789,-0.39128286,-0.19154686,-0.5505171,-0.20723836,0.0,0.0,0,-0.639626
0.16354647,0.17840368,-0.3912899,-0.19587465,-0.56087893,-0.20723684,0.0,0.0,0,-0.636014
0.15954486,0.17398353,-0.39129707,-0.20020238,-0.5712407,-0.20723526,0.0,0.0,0,-0.632336
0.15554371,0.16946734,-0.39130437,-0.20453003,-0.5816024,-0.20723371,0.0,0.0,0,-0.628637
0.15154305,0.16485515,-0.39131182,-0.20885767,-0.591964,-0.20723219,0.0,0.0,1,-0.999036
0.147476,0.16021743,-0.39992923,-0.20918074,-0.6000508,-0.16173558,0.0,0.0,1,-0.730795
0.14334345,0.1555639,-0.40847483,-0.20901425,-0.6057678,-0.11433987,0.0,0.0,1,-0.496494
0.13915062,0.15087505,-0.416221,-0.20981534,-0.60945284,-0.0737015,0.0,0.0,0,0.071377
0.13495779,0.14608914,-0.416222,-0.21413627,-0.6131379,-0.07370143,0.0,0.0,0,0.075317
0.13076515,0.14120616,-0.416223,-0.21845722,-0.61682296,-0.073701315,0.0,0.0,0,0.079286
0.12657252,0.13622612,-0.416224,-0.22277816,-0.620508,-0.07370125,0.0,0.0,1,-0.323425
0.122306444,0.13122411,-0.4256037,-0.22278374,-0.62171763,-0.024192864,0.0,0.0,1,0.090327
0.11799002,0.12619294,-0.43221083,-0.22333366,-0.62102205,0.013911648,0.0,0.0,1,0.243210
0.11362028,0.12112549,-0.4390963,-0.22421332,-0.618449,0.051461257,0.0,0.0,1,0.401495
0.109196566,0.11601013,-0.44594258,-0.22566366,-0.61413085,0.08636256,0.0,0.0,0,0.917794
0.10477295,0.11079777,-0.44594398,-0.22998495,-0.60981274,0.08636244,0.0,0.0,0,0.921800
0.10034933,0.10548843,-0.44594532,-0.23430625,-0.6054946,0.086362325,0.0,0.0,0,0.925748
0.095925905,0.100082025,-0.44594663,-0.23862754,-0.6011765,0.08636222,0.0,0.0,0,0.929619
0.09150257,0.094578706,-0.44594803,-0.24294883,-0.5968584,0.08636211,0.0,0.0,0,0.933391
0.08707933,0.088978395,-0.4459494,-0.24727014,-0.59254026,0.08636201,0.0,0.0,0,0.937020
0.08265619,0.083281025,-0.44595075,-0.25159144,-0.58822215,0.08636189,0.0,0.0,0,0.940413
0.078233145,0.07748674,-0.44595203,-0.25591275,-0.5839041,0.08636175,0.0,0.0,0,0.943518
0.0738101,0.07159539,-0.44595337,-0.2602341,-0.579586,0.08636168,0.0,0.0,0,0.946190
0.06938715,0.065607056,-0.4459547,-0.2645554,-0.575268,0.08636156,0.0,0.0,0,0.948256
0.06496439,0.059521805,-0.44595593,-0.26887673,-0.5709499,0.08636143,0.0,0.0,0,13.750652
0.060464762,0.05477701,-0.4670064,-0.20366497,-0.55122185,0.39430615,1.0,0.0,0,3.301044
0.05604105,0.049972855,-0.46227115,-0.20555131,-0.5282864,0.45873013,1.0,0.0,0,4.302513
0.051637363,0.045662936,-0.46850166,-0.18136261,-0.49494633,0.6689806,1.0,0.0,0,5.629253
0.047313593,0.04193073,-0.472613,-0.15211803,-0.45025504,0.89389133,1.0,0.0,3,7.285145
0.043203164,0.038364395,-0.46005398,-0.14368719,-0.3970652,1.0638831,1.0,0.0,3,7.096039
0.039232157,0.034847483,-0.44955093,-0.14267525,-0.34143144,1.1127566,1.0,0.0,3,6.474719
0.035333537,0.031256758,-0.44238845,-0.14811741,-0.2868062,1.0925889,1.0,0.0,3,6.366529
0.031514835,0.027550517,-0.43228263,-0.1556571,-0.23522843,1.0315999,1.0,0.0,3,-3.954689
0.027771663,0.02373291,-0.42286006,-0.16266032,-0.18619093,0.98075074,0.0,0.0,0,5.269045
0.024032403,0.019849643,-0.4229229,-0.16717833,-0.13716152,0.98058844,0.0,0.0,0,5.268271
0.020295907,0.015900789,-0.4229711,-0.17169814,-0.08814026,0.98042613,0.0,0.0,0,5.266002
0.016561413,0.01188663,-0.42300448,-0.17621925,-0.039127093,0.980264,0.0,0.0,3,4.189014
0.012896252,0.0077924705,-0.41439503,-0.18138933,0.0081418175,0.94537926,0.0,0.0,3,6.517514
0.009299373,0.0036255335,-0.40579957,-0.18607363,0.053682003,0.91080457,0.0,1.0,0,0.023607
0.0056531904,0.00012585879,-0.3931235,-0.15711404,0.08084233,0.5418414,0.0,1.0,0,0.925818
0.0018760681,-0.0028189921,-0.3862132,-0.13136122,0.08926759,0.16851035,0.0,1.0,0,2.198387
-0.0020208359,-0.005220821,-0.37938887,-0.10616479,0.07905028,-0.20435014,0.0,1.0,0,3.347245
-0.006021881,-0.007167461,-0.37348136,-0.08532907,0.05267283,-0.5275873,0.0,1.0,3,14.630544
-0.010003853,-0.008918299,-0.361066,-0.07693119,0.015960928,-0.7342972,1.0,1.0,0,1.633870
-0.013788223,-0.010138991,-0.35717097,-0.054238364,-0.0038145734,-0.3939597,1.0,1.0,0,0.030699
-0.017354775,-0.010757472,-0.35124844,-0.027518023,-0.009144891,-0.106591724,1.0,1.0,0,0.959131
-0.02075224,-0.010642495,-0.3438807,0.0051227673,-0.005055797,0.08178102,1.0,1.0,0,0.713438
-0.024055291,-0.009789768,-0.3362492,0.037902337,0.0008125918,0.11736474,1.0,1.0,3,0.578305
-0.027240086,-0.008306899,-0.32079932,0.065902814,0.0031020574,0.04580056,1.0,1.0,3,0.953786
-0.030298615,-0.006404247,-0.30473465,0.08457312,0.002020597,-0.021604914,1.0,1.0,0,-0.123073
-0.033333015,-0.004334047,-0.3022688,0.09202258,0.00089242426,-0.022538245,1.0,1.0,0,-0.083150
-0.036361407,-0.0023314739,-0.30197376,0.08901553,4.7124893e-05,-0.016883912,1.0,1.0,0,-0.195217
-0.039388083,-0.0004592204,-0.3019213,0.08321249,-0.000686505,-0.014673558,1.0,1.0,3,-19.758934
-0.042360496,0.0013057446,-0.29455563,0.07843853,-0.0033438879,-0.053147387,0.0,0.0,3,0.384954
-0.045244027,0.0029652095,-0.28396237,0.07373846,-0.007674245,-0.08660735,0.0,0.0,3,0.250011
-0.048035145,0.0045231436,-0.2723695,0.06919315,-0.014326806,-0.13305137,0.0,0.0,0,-0.854903
-0.05082617,0.005984483,-0.27236956,0.06486943,-0.020979354,-0.13305101,0.0,0.0,0,-0.862392
-0.053617287,0.0073492266,-0.27236968,0.06054572,-0.027631883,-0.13305059,0.0,0.0,3,0.041178
-0.056313705,0.008611474,-0.26049155,0.055903897,-0.036665585,-0.18067428,0.0,0.0,3,-0.420117
-0.05893879,0.009771547,-0.25155327,0.051255237,-0.047492597,-0.21654002,0.0,0.0,3,-0.679119
-0.061501026,0.010832773,-0.24365982,0.04672267,-0.05990224,-0.24819311,0.0,0.0,3,-0.487767
-0.063965224,0.011798439,-0.23138885,0.042249132,-0.07476811,-0.2973178,0.0,0.0,3,-0.892074
-0.066348076,0.012670479,-0.22122414,0.03782093,-0.091666535,-0.3379689,0.0,0.0,3,-1.163033
-0.068657495,0.013442669,-0.21204598,0.03305183,-0.110410236,-0.37487423,0.0,0.0,3,-1.421735
-0.070900634,0.014122448,-0.20380947,0.028572695,-0.1307991,-0.4077775,0.0,0.0,3,9.957072
-0.07289143,0.015107569,-0.19051321,0.042993452,-0.13927966,-0.16955957,1.0,0.0,3,0.672273
-0.07467699,0.016305266,-0.17971668,0.053333003,-0.13810201,0.023578238,1.0,0.0,3,0.652406
-0.0764,0.017373,-0.17075266,0.047309544,-0.13964185,-0.030797515,1.0,0.0,3,0.576232
-0.07803984,0.018319497,-0.16029136,0.041716214,-0.14332327,-0.0736287,1.0,0.0,3,-9.544194
-0.07958832,0.019137964,-0.1487855,0.03578264,-0.14937243,-0.12098279,0.0,0.0,3,0.046469
-0.08106108,0.019852862,-0.13931254,0.030953515,-0.15732591,-0.15906921,0.0,0.0,3,-0.241999
-0.08246946,0.020452319,-0.1312334,0.025595801,-0.16693863,-0.19225478,0.0,0.0,3,10.157741
-0.08374071,0.021108637,-0.12121929,0.028495159,-0.17285149,-0.11825719,1.0,0.0,3,0.331020
-0.08490553,0.021721253,-0.11094369,0.026571076,-0.17840375,-0.11104526,1.0,0.0,3,0.369816
-0.0859642,0.022296105,-0.10063694,0.024911122,-0.18364392,-0.10480368,1.0,0.0,0,-0.484166
-0.08701477,0.022794638,-0.10051175,0.021587009,-0.18821377,-0.091396704,1.0,0.0,0,-0.423817
-0.088057324,0.02321714,-0.100383975,0.018279787,-0.19210522,-0.07782885,1.0,0.0,0,-0.362771
-0.08909168,0.023563752,-0.10025388,0.014987526,-0.19531114,-0.06411873,1.0,0.0,3,0.397981
-0.09004335,0.023863945,-0.09239789,0.012975959,-0.19809791,-0.05573509,1.0,0.0,3,0.833967
-0.09087305,0.024128161,-0.08053157,0.011411012,-0.20055713,-0.049184266,1.0,0.0,3,0.783147
-0.0915906,0.024355326,-0.0696445,0.009809995,-0.20267782,-0.042414136,1.0,0.0,3,0.778727
-0.09220123,0.024539575,-0.059352838,0.007953278,-0.20440175,-0.034478754,1.0,0.0,3,0.910318
-0.09269686,0.024682984,-0.048224144,0.0061896374,-0.20574632,-0.026891923,1.0,0.0,3,0.781658
-0.0930953,0.02478262,-0.03892106,0.004296735,-0.20668131,-0.018699637,1.0,0.0,3,0.916795
-0.09338836,0.024834404,-0.028819922,0.0022338454,-0.20716798,-0.009733624,1.0,0.0,3,1.015791
-0.09357109,0.024833187,-0.018284138,-5.5290016e-05,-0.20715593,0.00024098434,1.0,0.0,3,0.949824
-0.093652345,0.024780188,-0.008621473,-0.0022848535,-0.20665784,0.00996191,1.0,0.0,3,0.600950
-0.09363089,0.024713024,0.0015227399,-0.0028992726,-0.20603052,0.012547193,1.0,0.0,3,-0.613408
-0.09352942,0.024622545,0.009293678,-0.0039037545,-0.20518035,0.017003443,1.0,0.0,3,-0.748234
-0.093340494,0.024514327,0.017888673,-0.0046710963,-0.20416471,0.020312544,1.0,0.0,3,-0.821120
-0.093055345,0.0243893,0.027351748,-0.0053983447,-0.20299254,0.023443568,1.0,0.0,3,-0.619036
-0.09269228,0.024244461,0.034959055,-0.006252031,-0.2016365,0.027121365,1.0,0.0,3,-0.710294
-0.092238806,0.02407559,0.043773077,-0.007291422,-0.20005837,0.031562172,1.0,0.0,3,-0.474090
-0.09171514,0.023874674,0.050509542,-0.008677216,-0.19818342,0.037499048,1.0,0.0,3,-0.481927
-0.091116525,0.023642072,0.057704158,-0.010052459,-0.19601682,0.04333154,1.0,0.0,3,-0.402120
-0.090447046,0.02337328,0.064468764,-0.011618545,-0.19351937,0.049948957,1.0,0.0,3,-0.699442
-0.08967514,0.02309576,0.07463124,-0.012003052,-0.19094758,0.05143577,1.0,0.0,3,-0.697806
-0.08879986,0.022812733,0.08492392,-0.012245671,-0.18833187,0.052314132,1.0,0.0,3,-0.696988
-0.087819956,0.022523485,0.0953406,-0.012523329,-0.18566549,0.05332735,1.0,0.0,3,-0.572361
-0.086745836,0.022222577,0.104655586,-0.013028902,-0.1829004,0.055301674,1.0,0.0,3,-0.531249
-0.085578725,0.021901641,0.1137807,-0.013905938,-0.17995928,0.05882261,1.0,0.0,3,-0.287255
-0.08433857,0.021545373,0.12076123,-0.015445939,-0.17670389,0.06510805,1.0,0.0,3,-0.204025
-0.08303042,0.021155486,0.12728064,-0.0169082,-0.17315431,0.070991114,1.0,0.0,3,-0.562822
-0.08161707,0.020757018,0.1377283,-0.017294172,-0.16953942,0.072298154,1.0,0.0,3,-0.216398
-0.08012962,0.02033101,0.14489509,-0.018501576,-0.16568826,0.07702313,1.0,0.0,3,-0.525018
-0.07853603,0.01989585,0.15544523,-0.018908285,-0.16177064,0.07835231,1.0,0.0,3,-0.118501
-0.076873496,0.019433437,0.16210628,-0.02010697,-0.15762332,0.082946554,1.0,0.0,0,0.643179
-0.07520809,0.018900428,0.16176873,-0.023193687,-0.15286222,0.09522214,1.0,0.0,0,0.699279
-0.07353993,0.018296394,0.16143581,-0.026301213,-0.147493,0.10738443,1.0,0.0,0,-9.245459
-0.07186899,0.017621122,0.16110829,-0.029430939,-0.14152157,0.11942849,0.0,0.0,0,0.808975
-0.0701952,0.016874252,0.16078605,-0.032584585,-0.13495441,0.13134347,0.0,0.0,0,0.862352
-0.068518735,0.016055355,0.16046986,-0.03576436,-0.12779874,0.1431132,0.0,0.0,1,2.172548
-0.066935256,0.015168581,0.14874767,-0.038616262,-0.11824395,0.19109535,0.0,0.0,1,2.290351
-0.065439224,0.014206848,0.13772303,-0.04184477,-0.10644816,0.23591563,0.0,0.0,1,2.271348
-0.06401844,0.013155494,0.12829074,-0.045802977,-0.092759795,0.2737671,0.0,0.0,1,2.353428
-0.062666036,0.012027965,0.11965042,-0.049215365,-0.07731687,0.3088583,0.0,0.0,0,1.528393
-0.061313532,0.010806451,0.11964778,-0.053555496,-0.06187423,0.3088532,0.0,0.0,0,1.516336
-0.059960842,0.009490988,0.11964561,-0.057895653,-0.04643183,0.3088481,0.0,0.0,0,1.504141
-0.05860796,0.008081433,0.119643904,-0.062235825,-0.03098969,0.30884305,0.0,0.0,0,1.491656
-0.057255268,0.0065778587,0.119642675,-0.06657601,-0.015547787,0.30883795,0.0,0.0,0,1.478828
-0.055902384,0.0049802996,0.1196419,-0.0709162,-0.00010614531,0.3088329,0.0,0.0,0,-1.601607
-0.054549597,0.003288648,0.1196416,-0.0752564,0.015335257,0.30882782,0.0,0.0,0,-1.636854
-0.05319681,0.0015029764,0.11964176,-0.0795966,0.0307764,0.30882275,0.0,0.0,0,11.782892
-0.052063752,0.00018329381,0.11697308,-0.05863737,0.02695432,-0.076691106,0.0,1.0,0,2.997648
-0.05111904,-0.00077275274,0.11397268,-0.042412315,0.007156147,-0.39665276,0.0,1.0,0,11.913014
-0.050094128,-0.001100018,0.10504357,-0.014536098,0.00460841,-0.050973248,1.0,1.0,1,1.303140
-0.049157716,-0.0011415386,0.09347609,-0.0018524249,0.004762365,0.0030676492,1.0,1.0,1,1.270607
-0.048349667,-0.00094037293,0.08244828,0.008940812,0.0031312488,-0.032634374,1.0,1.0,0,0.215006
-0.047535516,-0.00082360744,0.082340226,0.0051921476,0.0022252272,-0.018120306,1.0,1.0,0,0.155521
-0.046718024,-0.0007826233,0.08206463,0.0018221968,0.0019069907,-0.006364724,1.0,1.0,0,0.140288
-0.045903016,-0.00078283786,0.08149701,-1.0907728e-05,0.0019068469,-2.607473e-06,1.0,1.0,0,0.172182
-0.04509716,-0.00078312395,0.0805811,-1.2992056e-05,0.0019066753,-3.1111929e-06,1.0,1.0,0,0.171553
-0.044300556,-0.00078312395,0.07966206,-1.0208209e-07,0.0019066659,-2.8195194e-08,1.0,1.0,0,0.170391
-0.043513108,-0.00078312395,0.078745484,8.7251465e-08,0.0019066597,2.3216229e-08,1.0,1.0,0,0.169462
-0.042734813,-0.00078312395,0.07782904,6.7942816e-09,0.0019066524,-8.2695273e-10,1.0,1.0,0,0.168541
-0.041965675,-0.00078312395,0.07691264,-6.37298e-09,0.0019066443,-1.2072242e-10,1.0,1.0,0,0.167626
-0.041205693,-0.00078312395,0.075996235,-6.453727e-09,0.001906637,-1.343461e-10,1.0,1.0,0,0.166711
-0.040454865,-0.00078312395,0.07507983,-5.9862857e-09,0.0019066297,-1.3657298e-10,1.0,1.0,0,0.165795
-0.039713193,-0.00078312395,0.07416342,-3.103479e-09,0.0019066214,-3.8638297e-09,1.0,1.0,0,0.164878
-0.038980674,-0.00078312395,0.07324701,-8.635856e-11,0.0019066215,4.8278515e-10,1.0,1.0,0,0.163953
-0.03825741,-0.00078312395,0.072330594,2.5395177e-09,0.0019066207,-3.846286e-09,1.0,1.0,0,0.163037
-0.037543297,-0.00078312395,0.07141419,4.2920782e-09,0.00190662,-2.476805e-09,1.0,1.0,0,0.162121
-0.03683834,-0.00078312395,0.070497766,5.343381e-09,0.0019066262,-1.0010653e-09,1.0,1.0,0,0.161206
-0.03614254,-0.00078312395,0.06958135,5.5437317e-09,0.0019066249,4.5648102e-10,1.0,1.0,0,0.160289
-0.035455894,-0.00078312395,0.068664946,4.606418e-09,0.0019066244,1.2099801e-09,1.0,1.0,0,0.159372
-0.034778405,-0.00078312395,0.06774853,3.8463517e-09,0.0019066312,-2.3426387e-09,1.0,1.0,0,0.158457
-0.03411007,-0.00078312395,0.066832125,3.0495793e-09,0.0019066378,-3.8305314e-09,1.0,1.0,0,0.157541
-0.03345089,-0.00078312395,0.06591572,2.2849773e-09,0.0019066437,-4.7871658e-09,1.0,1.0,0,0.156625
-0.032800864,-0.00078312395,0.064999305,1.8026061e-09,0.0019066426,2.716646e-09,1.0,1.0,0,0.155709
-0.032159995,-0.00078312395,0.0640829,1.2062117e-09,0.0019066415,5.3099503e-09,1.0,1.0,0,0.154784
-0.031528376,-0.00078312395,0.063166484,2.413074e-10,0.0019066413,6.615186e-09,1.0,1.0,0,0.153868
-0.030905914,-0.00078312395,0.062250078,-6.506353e-10,0.0019066407,-9.411322e-10,1.0,1.0,0,0.152952
-0.030292606,-0.00078312395,0.061333667,-1.0922288e-09,0.0019066324,-3.8440513e-09,1.0,1.0,0,0.152034
-0.029688453,-0.00078312395,0.060417257,-1.5746899e-09,0.0019066465,-3.9799213e-09,1.0,1.0,0,0.151120
-0.029093456,-0.00078312395,0.05950085,-1.8567321e-09,0.0019066387,3.6418384e-09,1.0,1.0,0,0.150203
-0.028507615,-0.00078312395,0.05858444,-2.2850524e-09,0.0019066462,-1.788593e-09,1.0,1.0,0,0.149288
-0.027930927,-0.00078312395,0.05766803,-2.767535e-09,0.0019066447,-3.4949355e-09,1.0,1.0,0,0.148371
-0.027363395,-0.00078312395,0.05675162,-3.0629657e-09,0.0019066439,-3.5251198e-09,1.0,1.0,0,0.147455
-0.026805019,-0.00078312395,0.05583521,-2.7675346e-09,0.001906643,-3.6123968e-09,1.0,1.0,0,0.146538
-0.026255798,-0.00078312395,0.054918803,-2.7808365e-09,0.0019066497,-3.642303e-09,1.0,1.0,0,0.145623
-0.025715733,-0.00078312395,0.054002393,-2.3667828e-09,0.0019066486,4.234146e-09,1.0,1.0,0,0.144697
-0.025184918,-0.00078312395,0.053085983,-1.4018476e-09,0.0019066476,5.807649e-09,1.0,1.0,0,0.143781
-0.024663258,-0.00078312395,0.052169573,-3.551826e-10,0.0019066544,1.0410013e-09,1.0,1.0,0,0.142864
-0.024150753,-0.00078312395,0.051253162,6.09789e-10,0.0019066609,5.4994658e-09,1.0,1.0,0,0.141948
-0.023647403,-0.00078312395,0.050336756,5.7763566e-10,0.0019066674,6.4733436e-09,1.0,1.0,0,0.141033
-0.02315321,-0.00078312395,0.04942034,7.2371614e-10,0.0019066662,2.2331281e-09,1.0,1.0,0,0.140117
-0.022668172,-0.00078312395,0.048503928,4.8252796e-10,0.0019066667,5.8332263e-09,1.0,1.0,0,0.139200
-0.022192288,-0.00078312395,0.047587518,8.37587e-10,0.0019066726,-5.7570917e-09,1.0,1.0,0,0.138285
-0.02172556,-0.00078312395,0.046671104,1.3201792e-09,0.0019066648,5.465842e-09,1.0,1.0,0,0.137368
-0.021267986,-0.00078312395,0.045754693,1.8889375e-09,0.0019066717,-4.7409153e-11,1.0,1.0,0,0.136452
-0.020819569,-0.00078312395,0.04483828,1.9253283e-09,0.0019066706,4.586816e-09,1.0,1.0,0,0.135535
-0.020380307,-0.00078312395,0.043921866,1.9896127e-09,0.0019066775,5.9057603e-10,1.0,1.0,0,0.134609
-0.019950295,-0.00078312395,0.043005455,1.6886006e-09,0.0019066836,-7.091003e-10,1.0,1.0,0,0.133694
-0.019529438,-0.00078312395,0.04208904,1.0058929e-09,0.0019066833,6.2698247e-09,1.0,1.0,0,0.132777
-0.019117737,-0.00078312395,0.04117263,5.2343646e-10,0.0019066897,6.549127e-09,1.0,1.0,0,0.131862
-0.018715192,-0.00078312395,0.040256217,4.456856e-14,0.0019066886,3.809141e-09,1.0,1.0,0,0.130945
-0.018321801,-0.00078312395,0.039339803,-4.824424e-10,0.001906688,1.4835972e-09,1.0,1.0,0,0.130029
-0.017937565,-0.00078312395,0.038423393,-7.645078e-10,0.0019066869,7.0234867e-09,1.0,1.0,0,0.129112
-0.017562484,-0.00078312395,0.03750698,-1.105507e-09,0.0019066936,-2.0190891e-09,1.0,1.0,0,0.128197
-0.01719656,-0.00078312395,0.03659057,-1.0655828e-09,0.001906693,1.4434957e-10,1.0,1.0,0,0.127280
-0.016839791,-0.00078312395,0.035674155,-9.64904e-10,0.0019067,1.2818664e-09,1.0,1.0,0,0.126364
-0.016492177,-0.00078312395,0.03475774,-9.649105e-10,0.0019066986,7.106612e-10,1.0,1.0,0,0.125448
-0.016153717,-0.00078312395,0.03384133,-7.645111e-10,0.0019066982,6.7258648e-09,1.0,1.0,0,0.124523
-0.015824508,-0.00078312395,0.032924917,-9.649502e-10,0.0019066967,-2.6537799e-09,1.0,1.0,0,0.123606
-0.015504455,-0.00078312395,0.032008506,-7.7781076e-10,0.0019067046,6.7064994e-09,1.0,1.0,0,0.122690
-0.015193557,-0.00078312395,0.031092092,-7.2365575e-10,0.0019067107,2.8997043e-09,1.0,1.0,0,0.121775
-0.014891815,-0.00078312395,0.03017568,-2.4120422e-10,0.0019067094,2.1884066e-09,1.0,1.0,0,0.120859
-0.014599228,-0.00078312395,0.029259268,2.4125563e-10,0.0019067089,2.187905e-09,1.0,1.0,0,0.119942
-0.014315796,-0.00078312395,0.028342854,4.097869e-11,0.001906716,6.6804224e-09,1.0,1.0,0,0.119027
-0.014041519,-0.00078312395,0.027426442,-1.1401471e-10,0.0019067143,-4.237177e-09,1.0,1.0,0,0.118111
-0.013776397,-0.00078312395,0.02651003,1.1398868e-10,0.0019067203,2.0144941e-09,1.0,1.0,0,0.117196
-0.013520432,-0.00078312395,0.025593618,-1.1391849e-10,0.0019067191,3.9897277e-09,1.0,1.0,0,0.116280
-0.013273621,-0.00078312395,0.024677206,8.6219934e-11,0.0019067202,2.30368e-08,1.0,1.0,0,0.115353
-0.01303606,-0.00078312395,0.023760797,-3.231113e-11,0.0019067422,2.2779151e-08,1.0,1.0,0,0.114440
-0.012807655,-0.00078312395,0.022844385,4.5336054e-11,0.0019067354,2.4475776e-08,1.0,1.0,0,0.113524
-0.012588406,-0.00078312395,0.021927975,6.562253e-10,0.0019067355,3.018915e-09,1.0,1.0,0,0.112609
-0.012378311,-0.00078312395,0.021011565,3.3650188e-10,0.0019067404,-2.0758776e-08,1.0,1.0,0,0.111694
-0.012177372,-0.00078312395,0.020095153,2.6897043e-10,0.0019067384,-2.3418472e-08,1.0,1.0,0,0.110779
-0.011985588,-0.00078312395,0.019178743,5.1004295e-10,0.0019067449,-1.5050752e-09,1.0,1.0,0,0.109863
-0.011802959,-0.00078312395,0.01826233,1.6801167e-10,0.0019067595,2.2248749e-08,1.0,1.0,0,0.108950
-0.011629486,-0.00078312395,0.01734592,-1.09544734e-10,0.0019067591,2.3147633e-08,1.0,1.0,0,0.108035
-0.011465168,-0.00078312395,0.01642951,-4.086301e-11,0.0019067666,3.2109733e-09,1.0,1.0,0,0.107120
-0.011310006,-0.00078312395,0.015513098,1.13922094e-10,0.001906773,-3.6764138e-09,1.0,1.0,0,0.106206
-0.011163997,-0.00078312395,0.014596688,1.1383323e-10,0.0019067801,2.410681e-08,1.0,1.0,0,0.105282
-0.011027241,-0.00078312395,0.013680276,1.5471815e-10,0.0019067879,2.2747741e-08,1.0,1.0,0,0.104368
-0.010899639,-0.00078312395,0.012763867,-1.3479694e-11,0.001906795,2.2143142e-08,1.0,1.0,0,0.103455
-0.010781193,-0.00078312395,0.011847457,-3.419154e-10,0.001906794,-1.7156301e-09,1.0,1.0,0,0.102541
-0.0106719015,-0.00078312395,0.010931047,-8.180072e-11,0.0019067997,-1.7652471e-08,1.0,1.0,0,0.101627
-0.010571766,-0.00078312395,0.010014636,3.5520673e-10,0.0019068056,-1.6684174e-08,1.0,1.0,0,0.100714
-0.010480786,-0.00078312395,0.009098226,6.3734296e-10,0.0019068031,-1.6219548e-08,1.0,1.0,0,0.099799
-0.01039896,-0.00078312395,0.008181816,4.3698647e-10,0.001906818,1.6870507e-08,1.0,1.0,0,0.098888
-0.0103262905,-0.00078312395,0.007265405,5.687991e-10,0.0019068099,1.5552542e-08,1.0,1.0,0,0.097974
-0.010262775,-0.00078312395,0.0063489936,4.824026e-10,0.0019068096,1.2813233e-08,1.0,1.0,0,0.097060
-0.010208416,-0.00078312395,0.0054325834,8.173771e-11,0.0019068248,2.1127196e-08,1.0,1.0,0,0.096148
-0.010163212,-0.00078312395,0.004516173,-5.2339594e-10,0.0019068246,1.4609408e-08,1.0,1.0,0,0.095226
-0.0101272585,-0.00078312395,0.0035997625,-9.649791e-10,0.0019068249,2.1449093e-08,1.0,1.0,0,0.094313
-0.01010046,-0.00078312395,0.002683352,-8.0553364e-10,0.001906825,1.8484153e-08,1.0,1.0,0,0.093399
-0.010082817,-0.00078312395,0.0017669415,-7.2365663e-10,0.0019068309,-1.4895003e-08,1.0,1.0,0,0.092487
-0.01007433,-0.00078312395,0.000850531,-4.4158416e-10,0.0019068372,8.933615e-09,1.0,1.0,0,0.082850
-0.0100745205,-0.00078312395,-2.1519623e-05,-2.1728965e-08,0.0019071539,6.2657537e-06,1.0,1.0,0,-0.027765
-0.0100774765,-0.00078312395,-0.00029185365,-2.93173e-07,0.0019115255,8.496208e-05,1.0,1.0,0,0.010402
-0.010079289,-0.00078312395,-0.00018328309,-1.8591612e-07,0.0019142666,5.3356944e-05,1.0,1.0,0,0.015826
-0.010079575,-0.00078312395,-2.4358267e-05,-2.4923482e-08,0.0019146461,7.0917617e-06,1.0,1.0,0,-0.001837
-0.010079098,-0.00078312395,4.387082e-05,4.4306496e-08,0.0019139785,-1.2769693e-05,1.0,1.0,0,0.000824
-0.010078716,-0.00078312395,3.654637e-05,3.7045403e-08,0.0019134417,-1.06446805e-05,1.0,1.0,0,0.002725
-0.010078621,-0.00078312395,9.526652e-06,1.020202e-08,0.0019133035,-2.7717801e-06,1.0,1.0,0,0.000364
-0.010078716,-0.00078312395,-5.703099e-06,-6.2336993e-09,0.001913396,1.6592446e-06,1.0,1.0,0,-0.000131
-0.010078812,-0.00078312395,-6.824407e-06,-6.630673e-09,0.0019134925,1.984664e-06,1.0,1.0,0,0.000418
-0.010078812,-0.00078312395,-2.5905763e-06,-2.6705715e-09,0.001913544,7.5601685e-07,1.0,1.0,0,0.000207
-0.010078812,-0.00078312395,5.375443e-07,5.5997257e-10,0.001913531,-1.6535367e-07,1.0,1.0,0,-0.000063
-0.010078812,-0.00078312395,1.1960385e-06,1.06611e-09,0.0019135074,-3.4917477e-07,1.0,1.0,0,0.000060
-0.010078812,-0.00078312395,6.060582e-07,6.08004e-10,0.0019134943,-1.8210498e-07,1.0,1.0,0,0.000060
-0.010078812,-0.00078312395,8.4532e-09,-1.1608811e-09,0.0019134887,-1.8370253e-08,1.0,1.0,0,-0.000018
-0.010078812,-0.00078312395,-1.9373756e-07,-2.5189817e-10,0.001913488,5.008612e-08,1.0,1.0,0,0.000006
-0.010078812,-0.00078312395,-1.3107432e-07,-3.135287e-10,0.001913486,5.3904017e-08,1.0,1.0,0,0.000011
-0.010078812,-0.00078312395,-2.4529252e-08,-2.8428303e-11,0.0019134826,2.284963e-08,1.0,1.0,0,0.000000
-0.010078812,-0.00078312395,2.8160025e-08,5.661297e-11,0.0019134776,-2.0141844e-08,1.0,1.0,0,0.000001
-0.010078812,-0.00078312395,2.7822782e-08,-1.0917531e-11,0.001913472,-1.9189304e-08,1.0,1.0,0,0.000002
-0.010078812,-0.00078312395,1.3434042e-08,1.3944115e-11,0.0019134661,-2.2132747e-08,1.0,1.0,0,0.000002
-0.010078812,-0.00078312395,-8.087553e-11,-1.8702577e-10,0.0019134614,-1.6023428e-09,1.0,1.0,0,-0.000001
-0.010078812,-0.00078312395,-9.9130135e-09,-3.2027863e-11,0.0019134585,2.1469464e-08,1.0,1.0,0,100
-0.0040041925,1.4161582,-0.40559492,0.23279847,0.004646633,0.091873296,0.0,0.0,0,-0.758483
-0.008008766,1.4213212,-0.40504622,0.2294507,0.009186521,0.0908068,0.0,0.0,0,-0.754294
-0.01201353,1.426388,-0.40506035,0.22515653,0.013723716,0.09075187,0.0,0.0,0,-0.747103
-0.01601839,1.4313577,-0.40507373,0.22083084,0.018260328,0.09074049,0.0,0.0,0,-0.741672
-0.020023441,1.4362307,-0.40508708,0.21650735,0.022796206,0.09072626,0.0,0.0,0,-0.736182
-0.024028588,1.4410065,-0.4051005,0.21218422,0.027331393,0.090711825,0.0,0.0,0,-0.730712
-0.028033923,1.4456856,-0.40511385,0.20786114,0.031865865,0.090697825,0.0,0.0,0,-0.725240
-0.032039355,1.4502676,-0.40512714,0.20353793,0.036399633,0.090683535,0.0,0.0,0,-0.719832
-0.036044978,1.4547527,-0.4051404,0.19921462,0.040932696,0.09066941,0.0,0.0,0,-0.714428
-0.040050697,1.4591405,-0.4051536,0.19489121,0.04546504,0.09065528,0.0,0.0,0,-0.709094
-0.044056606,1.4634317,-0.4051668,0.19056772,0.04999669,0.090641245,0.0,0.0,0,-0.703782
-0.04806261,1.467626,-0.4051799,0.18624412,0.054527633,0.09062721,0.0,0.0,0,-0.698486
-0.0520689,1.4717231,-0.4051929,0.18192044,0.059057884,0.09061319,0.0,0.0,0,-0.693241
-0.056075286,1.4757233,-0.40520588,0.17759664,0.06358744,0.090599224,0.0,0.0,0,-0.688032
-0.06008177,1.4796264,-0.40521878,0.17327279,0.06811631,0.09058532,0.0,0.0,0,-0.682860
-0.06408844,1.4834325,-0.40523165,0.16894883,0.07264449,0.09057146,0.0,0.0,0,-0.677720
-0.06809521,1.4871417,-0.40524444,0.16462478,0.07717197,0.090557665,0.0,0.0,0,-0.672620
-0.07210217,1.4907539,-0.40525717,0.16030066,0.081698745,0.09054391,0.0,0.0,0,-0.667560
-0.07610931,1.4942691,-0.40526986,0.1559764,0.08622486,0.09053023,0.0,0.0,0,-0.662545
-0.080116555,1.4976875,-0.40528244,0.15165208,0.09075029,0.09051658,0.0,0.0,0,-0.657541
-0.084123895,1.5010086,-0.40529498,0.14732766,0.09527502,0.09050299,0.0,0.0,0,-0.652596
-0.088131525,1.5042329,-0.40530747,0.14300317,0.09979911,0.09048944,0.0,0.0,0,-0.647678
-0.092139244,1.5073601,-0.40531987,0.13867857,0.10432252,0.09047598,0.0,0.0,0,-0.642801
-0.09614706,1.5103904,-0.40533224,0.13435388,0.108845256,0.09046255,0.0,0.0,0,-0.637969
-0.10015507,1.5133238,-0.4053445,0.1300291,0.1133673,0.09044918,0.0,0.0,0,-0.587447
-0.104161546,1.5161388,-0.40519294,0.12475667,0.117889196,0.09043781,0.0,0.0,0,-0.626118
-0.10816803,1.5188569,-0.40519267,0.12043497,0.12241109,0.09043768,0.0,0.0,0,-0.621437
-0.112174414,1.5214778,-0.40519238,0.11611327,0.12693295,0.09043755,0.0,0.0,0,-0.616824
-0.1161809,1.524002,-0.40519208,0.11179157,0.13145481,0.090437375,0.0,0.0,0,-0.612238
-0.12018738,1.5264293,-0.40519175,0.10746988,0.13597666,0.09043718,0.0,0.0,0,-0.607677
-0.12419386,1.5287596,-0.40519142,0.103148185,0.14049849,0.090437,0.0,0.0,0,-0.603162
-0.12820044,1.530993,-0.40519103,0.09882649,0.14502034,0.0904368,0.0,0.0,0,-0.598653
-0.132207,1.5331293,-0.40519065,0.094504796,0.14954217,0.09043656,0.0,0.0,0,-0.594217
-0.13621359,1.535169,-0.4051903,0.0901831,0.15406397,0.0904364,0.0,0.0,0,-0.589789
-0.14022017,1.5371116,-0.4051899,0.0858614,0.15858579,0.0904363,0.0,0.0,0,-0.585389
-0.14422683,1.5389572,-0.4051895,0.0815397,0.16310759,0.090436205,0.0,0.0,0,-0.581011
-0.1482335,1.5407059,-0.40518904,0.07721801,0.16762939,0.09043607,0.0,0.0,0,-0.576696
-0.15224028,1.5423577,-0.40518865,0.07289632,0.1721512,0.090435944,0.0,0.0,0,-0.572378
-0.15624705,1.5439125,-0.40518823,0.06857463,0.17667298,0.090435795,0.0,0.0,0,-0.568104
-0.16025381,1.5453706,-0.40518776,0.06425294,0.18119477,0.09043568,0.0,0.0,0,-0.563832
-0.16426067,1.5467314,-0.40518728,0.059931252,0.18571654,0.090435565,0.0,0.0,0,-0.559630
-0.16826753,1.5479956,-0.4051868,0.055609565,0.19023833,0.09043544,0.0,0.0,0,-0.555419
-0.1722745,1.5491626,-0.40518633,0.051287882,0.19476007,0.09043519,0.0,0.0,0,-0.551236
-0.17628136,1.5502329,-0.40518585,0.046966195,0.19928183,0.09043508,0.0,0.0,0,-0.547071
-0.1802884,1.551206,-0.4051853,0.042644512,0.20380357,0.090434946,0.0,0.0,0,-0.542960
-0.18429546,1.5520825,-0.4051848,0.038322832,0.20832531,0.090434805,0.0,0.0,0,-0.538825
-0.18830252,1.5528618,-0.40518427,0.034001157,0.21284704,0.09043467,0.0,0.0,0,-0.534727
-0.19230966,1.5535442,-0.40518373,0.029679483,0.21736877,0.09043452,0.0,0.0,0,-0.530656
-0.19631681,1.5541297,-0.40518317,0.02535781,0.22189051,0.09043448,0.0,0.0,0,-0.526602
-0.20032397,1.5546184,-0.4051826,0.02103614,0.22641222,0.09043432,0.0,0.0,0,-0.522560
-0.20433116,1.5550101,-0.40518206,0.016714472,0.23093395,0.09043421,0.0,0.0,0,-0.518515
-0.20833845,1.5553048,-0.40518147,0.012392805,0.23545566,0.09043415,0.0,0.0,0,-0.514494
-0.21234575,1.5555024,-0.40518084,0.00807114,0.23997737,0.09043404,0.0,0.0,0,-0.510497
-0.21635309,1.5556033,-0.40518022,0.0037494772,0.24449906,0.09043395,0.0,0.0,0,-0.506498
-0.22036043,1.5556071,-0.4051796,-0.0005721846,0.24902074,0.0904338,0.0,0.0,0,-0.502525
-0.22436786,1.5555141,-0.40517896,-0.0048938445,0.25354242,0.09043366,0.0,0.0,0,-0.498539
-0.22837529,1.5553242,-0.4051783,-0.009215502,0.2580641,0.09043354,0.0,0.0,0,-0.494587
-0.23238282,1.5550374,-0.40517768,-0.013537156,0.26258576,0.09043344,0.0,0.0,0,-0.490617
-0.2363904,1.5546535,-0.40517703,-0.01785881,0.26710743,0.0904333,0.0,0.0,0,-0.486651
-0.24039802,1.5541728,-0.4051763,-0.022180462,0.2716291,0.09043315,0.0,0.0,0,-0.482696
-0.24440566,1.553595,-0.40517563,-0.02650211,0.27615073,0.090433046,0.0,0.0,0,-0.478751
-0.24841332,1.5529203,-0.4051749,-0.03082376,0.28067237,0.09043292,0.0,0.0,0,-0.474815
-0.25242108,1.5521488,-0.40517426,-0.03514541,0.28519398,0.090432785,0.0,0.0,0,-0.470847
-0.25642887,1.5512803,-0.40517354,-0.039467055,0.28971562,0.09043251,0.0,0.0,0,-0.466909
-0.2604367,1.5503148,-0.40517282,-0.043788694,0.29423726,0.09043253,0.0,0.0,0,-0.462953
-0.26444468,1.5492524,-0.4051721,-0.04811034,0.29875886,0.090432435,0.0,0.0,0,-0.459000
-0.26845264,1.5480931,-0.4051713,-0.052431982,0.30328047,0.09043237,0.0,0.0,0,-0.455026
-0.27246064,1.5468366,-0.4051705,-0.056753617,0.30780208,0.09043225,0.0,0.0,0,-0.451094
-0.2764687,1.5454836,-0.40516973,-0.06107525,0.3123237,0.09043206,0.0,0.0,0,-0.447111
-0.28047687,1.5440333,-0.40516895,-0.06539688,0.3168453,0.09043194,0.0,0.0,0,-0.443144
-0.28448504,1.5424862,-0.40516815,-0.06971851,0.3213669,0.0904319,0.0,0.0,0,-0.439162
-0.2884933,1.540842,-0.4051674,-0.07404014,0.32588848,0.09043177,0.0,0.0,0,-0.435186
-0.29250163,1.5391011,-0.40516663,-0.07836175,0.33041006,0.09043165,0.0,0.0,0,-0.431175
-0.29650998,1.5372633,-0.40516576,-0.08268336,0.33493164,0.090431534,0.0,0.0,0,-0.427149
-0.30051836,1.5353281,-0.4051649,-0.08700498,0.3394532,0.09043126,0.0,0.0,0,-0.423164
-0.30452687,1.5332965,-0.4051641,-0.091326594,0.34397474,0.0904311,0.0,0.0,0,-0.419126
-0.3085354,1.5311677,-0.4051632,-0.095648214,0.3484963,0.09043098,0.0,0.0,0,-0.415096
-0.31254402,1.528942,-0.4051624,-0.09996983,0.35301784,0.09043087,0.0,0.0,0,-0.411055
-0.31655273,1.5266194,-0.40516153,-0.10429144,0.3575394,0.090430744,0.0,0.0,0,-0.406986
-0.3205614,1.5241998,-0.40516067,-0.108613044,0.3620609,0.09043062,0.0,0.0,0,-0.402908
-0.32457024,1.5216832,-0.40515977,-0.112934664,0.36658242,0.090430476,0.0,0.0,0,-0.398815
-0.3285791,1.5190697,-0.40515882,-0.11725626,0.37110394,0.09043036,0.0,0.0,0,-0.394720
-0.33258802,1.5163592,-0.4051579,-0.12157787,0.37562546,0.09043024,0.0,0.0,0,-0.390615
-0.33659706,1.5135518,-0.40515694,-0.12589946,0.38014695,0.09043001,0.0,0.0,0,-0.386500
-0.34060606,1.5106475,-0.405156,-0.13022105,0.38466844,0.09042986,0.0,0.0,0,-0.382352
-0.34461522,1.5076462,-0.40515503,-0.13454263,0.38918996,0.09042973,0.0,0.0,0,-0.378211
-0.3486244,1.5045481,-0.40515408,-0.13886422,0.39371145,0.09042959,0.0,0.0,0,-0.374043
-0.35263366,1.5013528,-0.40515313,-0.1431858,0.3982329,0.09042947,0.0,0.0,0,-0.369881
-0.35664305,1.4980608,-0.40515217,-0.14750737,0.40275437,0.090429366,0.0,0.0,0,-0.365671
-0.36065245,1.4946716,-0.4051512,-0.15182894,0.40727583,0.09042924,0.0,0.0,0,-0.361484
-0.36466193,1.4911857,-0.40515018,-0.15615053,0.41179729,0.09042911,0.0,0.0,0,-0.357269
-0.36867148,1.4876026,-0.40514916,-0.1604721,0.41631874,0.090428986,0.0,0.0,0,-0.353052
-0.37268114,1.4839227,-0.40514812,-0.16479367,0.42084017,0.09042886,0.0,0.0,0,-0.348802
-0.37669086,1.4801458,-0.40514708,-0.16911525,0.4253616,0.09042873,0.0,0.0,0,-0.344562
-0.38070065,1.476272,-0.40514597,-0.17343679,0.42988303,0.090428606,0.0,0.0,0,-0.340305
-0.38471046,1.4723011,-0.40514487,-0.17775832,0.43440446,0.09042861,0.0,0.0,0,-0.336040
-0.38872042,1.4682333,-0.4051438,-0.18207987,0.4389259,0.090428434,0.0,0.0,0,-0.331780
-0.3927304,1.4640687,-0.40514272,-0.18640141,0.4434473,0.09042799,0.0,0.0,0,-0.327493
-0.39674053,1.459807,-0.40514165,-0.19072296,0.4479687,0.09042788,0.0,0.0,0,-0.323203
-0.4007507,1.4554484,-0.40514055,-0.1950445,0.4524901,0.09042774,0.0,0.0,0,-0.318908
-0.40476093,1.4509928,-0.40513945,-0.19936606,0.4570115,0.09042771,0.0,0.0,0,-0.314618
-0.40877128,1.4464403,-0.40513834,-0.20368761,0.46153286,0.09042756,0.0,0.0,0,-0.310305
-0.41278163,1.4417909,-0.4051372,-0.20800914,0.46605423,0.090427436,0.0,0.0,0,-0.305999
-0.4167921,1.4370445,-0.40513605,-0.21233065,0.4705756,0.09042737,0.0,0.0,0,-0.301703
-0.42080268,1.4322011,-0.40513492,-0.21665218,0.47509697,0.090427235,0.0,0.0,0,-0.297371
-0.42481336,1.4272608,-0.40513372,-0.22097372,0.4796183,0.090427,0.0,0.0,0,-0.293077
-0.4288241,1.4222236,-0.40513253,-0.22529525,0.48413968,0.09042656,0.0,0.0,0,-0.288749
-0.43283492,1.4170891,-0.40513134,-0.22961678,0.488661,0.090426445,0.0,0.0,0,-0.284469
-0.43684578,1.4118581,-0.40513015,-0.23393828,0.4931823,0.09042632,0.0,0.0,3,0.734592
-0.44079143,1.4065775,-0.39685223,-0.23551436,0.49575275,0.051409233,0.0,0.0,3,1.128902
-0.44466168,1.4012648,-0.3872227,-0.23618641,0.49597123,0.004369612,0.0,0.0,3,1.349189
-0.44845802,1.3959217,-0.37774736,-0.23679543,0.49385342,-0.04235626,0.0,0.0,3,1.416679
-0.45218772,1.3905318,-0.3692926,-0.23823644,0.4897293,-0.08248258,0.0,0.0,3,1.668520
-0.4558496,1.3851041,-0.3605984,-0.23925543,0.48348188,-0.12494799,0.0,0.0,3,1.624421
-0.4594605,1.3796291,-0.3539889,-0.24086837,0.47558677,-0.15790197,0.0,0.0,3,2.133801
-0.46299505,1.3741142,-0.34426957,-0.24199457,0.4654088,-0.20355944,0.0,0.0,3,2.118963
-0.46647248,1.3685594,-0.33682758,-0.24327339,0.4533828,-0.24052045,0.0,0.0,3,2.378002
-0.46988353,1.3629565,-0.3283172,-0.24492113,0.43938226,-0.28001058,0.0,0.0,3,2.820581
-0.47321576,1.3573285,-0.31807962,-0.24547905,0.422921,-0.32922518,0.0,0.0,3,2.660671
-0.47649345,1.3516526,-0.31093958,-0.2473204,0.40477097,-0.3630007,0.0,0.0,3,3.048172
-0.4796981,1.3459294,-0.30152535,-0.24909496,0.384509,-0.4052387,0.0,0.0,3,3.184235
-0.48283133,1.3401487,-0.29235414,-0.25142488,0.36226255,-0.4449293,0.0,0.0,0,2.385976
-0.48596615,1.3342769,-0.29233137,-0.25578347,0.34001684,-0.44491416,0.0,0.0,0,2.389744
-0.48910245,1.3283143,-0.29230994,-0.26014236,0.31777188,-0.444899,0.0,0.0,0,2.393512
-0.49224013,1.3222609,-0.2922898,-0.26450154,0.2955277,-0.44488376,0.0,0.0,0,2.397312
-0.49537912,1.3161163,-0.29227093,-0.268861,0.27328426,-0.44486865,0.0,0.0,0,2.401103
-0.49851924,1.309881,-0.2922534,-0.27322075,0.2510416,-0.44485345,0.0,0.0,0,2.404927
-0.50166047,1.3035545,-0.29223722,-0.27758077,0.22879969,-0.4448383,0.0,0.0,0,2.408709
-0.5048026,1.2971376,-0.29222238,-0.281941,0.20655854,-0.44482312,0.0,0.0,0,2.412515
-0.50794566,1.2906297,-0.29220888,-0.28630146,0.18431816,-0.444808,0.0,0.0,0,2.416312
-0.5110895,1.2840313,-0.29219672,-0.2906621,0.16207853,-0.4447928,0.0,0.0,0,2.420102
-0.51423407,1.2773421,-0.29218596,-0.2950229,0.13983965,-0.44477764,0.0,0.0,0,2.423906
-0.51737916,1.2705619,-0.29217654,-0.29938382,0.11760153,-0.44476253,0.0,0.0,0,2.427672
-0.52052486,1.2636914,-0.29216847,-0.30374488,0.095364176,-0.44474736,0.0,0.0,0,2.431422
-0.52367085,1.2567302,-0.2921618,-0.3081061,0.07312757,-0.44473225,0.0,0.0,0,2.435189
-0.5268172,1.2496783,-0.29215652,-0.3124674,0.050891716,-0.44471708,0.0,0.0,0,2.438896
-0.52996385,1.2425358,-0.29215258,-0.31682873,0.02865663,-0.44470197,0.0,0.0,0,2.442602
-0.53311056,1.2353029,-0.29215,-0.32119015,0.0064222985,-0.4446868,0.0,0.0,0,-0.715960
-0.53625727,1.2279792,-0.2921488,-0.32555157,-0.015811276,-0.44467163,0.0,0.0,0,-1.996616
-0.5394039,1.2205651,-0.292149,-0.32991302,-0.038044095,-0.44465646,0.0,0.0,0,-1.992813
-0.5425504,1.21306,-0.29215056,-0.3342744,-0.06027616,-0.4446413,0.0,0.0,0,-1.989057
-0.5456966,1.2054642,-0.2921535,-0.3386358,-0.08250746,-0.4446261,0.0,0.0,2,3.189138
-0.5487019,1.1991942,-0.27839234,-0.28003877,-0.10445062,-0.43886328,0.0,0.0,2,2.185470
-0.55165625,1.1942688,-0.2731185,-0.2206076,-0.12662306,-0.44344908,0.0,0.0,2,3.039172
-0.5543507,1.1905744,-0.24787036,-0.16616835,-0.14812016,-0.4299419,0.0,0.0,2,1.024758
-0.5569094,1.1878386,-0.2345093,-0.12385432,-0.16947679,-0.42713267,0.0,0.0,2,1.324027
-0.55926067,1.1861017,-0.21420817,-0.07970668,-0.19045734,-0.41961092,0.0,0.0,2,1.495150
-0.56134593,1.1856356,-0.18810657,-0.02346753,-0.21102872,-0.4114279,0.0,0.0,0,-2.155915
-0.5634305,1.1850779,-0.1881171,-0.027822299,-0.2315995,-0.41141582,0.0,0.0,0,-2.157727
-0.56551415,1.1844285,-0.18812871,-0.032176923,-0.25216967,-0.4114038,0.0,0.0,0,-2.159460
-0.56759685,1.1836873,-0.18814138,-0.036531378,-0.27273926,-0.41139182,0.0,0.0,1,-2.843597
-0.56974846,1.1828766,-0.19691756,-0.039538566,-0.29148135,-0.37484154,0.0,0.0,1,-2.762028
-0.57198125,1.1820103,-0.20727544,-0.04179572,-0.30801144,-0.3306017,0.0,0.0,1,-2.565346
-0.57429767,1.1810802,-0.21785763,-0.04432769,-0.32231656,-0.28610224,0.0,0.0,1,-2.165385
-0.5766796,1.1800852,-0.22618814,-0.046943076,-0.3348347,-0.25036266,0.0,0.0,0,-1.351208
-0.579061,1.1789949,-0.2261945,-0.051275518,-0.34735268,-0.25035995,0.0,0.0,0,-1.350867
-0.581442,1.1778095,-0.22620109,-0.05560791,-0.35987055,-0.25035724,0.0,0.0,0,-1.350445
-0.5838224,1.1765287,-0.22620788,-0.059940245,-0.37238827,-0.25035456,0.0,0.0,0,-1.349966
-0.58620244,1.1751529,-0.22621493,-0.06427253,-0.38490587,-0.25035188,0.0,0.0,0,-1.349371
-0.5885819,1.1736816,-0.2262222,-0.06860473,-0.39742336,-0.25034916,0.0,0.0,0,-1.348699
-0.59096086,1.1721151,-0.2262297,-0.07293689,-0.4099407,-0.25034645,0.0,0.0,2,0.806554
-0.5931777,1.1713008,-0.20976047,-0.039696768,-0.42281497,-0.25748557,0.0,0.0,2,2.664385
-0.5949976,1.1712265,-0.17069075,-0.006738983,-0.43507406,-0.24518189,0.0,0.0,2,1.566247
-0.5964196,1.1723058,-0.1310021,0.044452347,-0.4472902,-0.24432316,0.0,0.0,2,-0.332722
-0.59729457,1.1745888,-0.076864585,0.098020025,-0.45896086,-0.23341301,0.0,0.0,0,-1.064336
-0.59816897,1.1767762,-0.076872066,0.09368975,-0.4706314,-0.23341084,0.0,0.0,0,-1.062049
-0.59904295,1.1788679,-0.076879725,0.08935952,-0.48230183,-0.23340866,0.0,0.0,0,-1.060317
-0.5999162,1.1808642,-0.07688757,0.08502936,-0.49397215,-0.23340647,0.0,0.0,0,-1.059159
-0.600789,1.1827648,-0.076895595,0.08069926,-0.50564235,-0.23340428,0.0,0.0,0,-1.058662
-0.6016612,1.1845698,-0.0769038,0.07636922,-0.51731247,-0.23340209,0.0,0.0,0,-1.058856
-0.6025328,1.186279,-0.076912165,0.072039254,-0.52898246,-0.23339987,0.0,0.0,0,-1.059828
-0.60340375,1.1878929,-0.07692071,0.06770934,-0.54065233,-0.23339769,0.0,0.0,0,-1.061623
-0.60427403,1.1894109,-0.07692943,0.063379504,-0.5523221,-0.23339549,0.0,0.0,0,-1.064335
-0.6051438,1.1908334,-0.076938316,0.059049737,-0.5639918,-0.23339331,0.0,0.0,0,-1.067977
-0.6060128,1.1921601,-0.076947376,0.054720037,-0.57566136,-0.23339112,0.0,0.0,0,-1.072668
-0.60688126,1.1933912,-0.07695661,0.050390407,-0.5873308,-0.23338893,0.0,0.0,0,-1.078424
-0.607749,1.1945266,-0.076966,0.046060856,-0.59900016,-0.23338673,0.0,0.0,0,-1.085306
-0.608616,1.1955663,-0.07697557,0.041731372,-0.6106694,-0.23338456,0.0,0.0,0,-1.093346
-0.6094824,1.1965103,-0.07698529,0.037401963,-0.6223385,-0.23338239,0.0,0.0,0,-1.102544
-0.610348,1.1973584,-0.07699518,0.033072636,-0.63400745,-0.23338017,0.0,0.0,0,-1.112928
-0.61121297,1.1981108,-0.07700524,0.028743388,-0.6456764,-0.23337798,0.0,0.0,0,-1.124433
-0.6120771,1.1987677,-0.07701545,0.024414215,-0.6573452,-0.23337582,0.0,0.0,0,-1.136990
-0.6129406,1.1993285,-0.07702582,0.020085124,-0.66901386,-0.23337364,0.0,0.0,0,-1.150508
-0.6138033,1.1997936,-0.07703636,0.015756113,-0.6806824,-0.23337142,0.0,0.0,0,-1.164869
-0.61466527,1.2001629,-0.07704705,0.011427188,-0.69235086,-0.23336926,0.0,0.0,0,-1.179877
-0.61552644,1.2004365,-0.07705789,0.0070983456,-0.7040192,-0.23336709,0.0,0.0,0,-1.195373
-0.61638683,1.2006142,-0.077068895,0.002769588,-0.71568745,-0.2333649,0.0,0.0,0,-1.211090
-0.6172464,1.2006961,-0.077080056,-0.0015590838,-0.7273556,-0.23336267,0.0,0.0,0,-1.226858
-0.6181052,1.2006822,-0.07709136,-0.005887668,-0.7390236,-0.2333605,0.0,0.0,0,-1.242401
-0.6189632,1.2005724,-0.07710282,-0.010216165,-0.75069153,-0.23335831,0.0,0.0,0,-1.257537
-0.61982036,1.2003666,-0.07711442,-0.014544573,-0.7623593,-0.23335615,0.0,0.0,0,-1.272055
-0.62067664,1.2000651,-0.07712616,-0.018872887,-0.774027,-0.23335397,0.0,0.0,0,-1.285792
-0.6215321,1.1996677,-0.07713805,-0.02320111,-0.7856946,-0.23335178,0.0,0.0,0,-1.298568
-0.62238675,1.1991742,-0.077150084,-0.02752924,-0.7973621,-0.23334953,0.0,0.0,0,-1.310334
-0.62324053,1.1985848,-0.07716226,-0.03185728,-0.80902946,-0.23334737,0.0,0.0,0,-1.320991
-0.6240934,1.1978996,-0.07717458,-0.03618522,-0.8206967,-0.23334515,0.0,0.0,0,-1.330489
-0.6249454,1.1971184,-0.07718703,-0.040513065,-0.83236384,-0.23334296,0.0,0.0,0,-1.338811
-0.62579656,1.196241,-0.07719962,-0.044840813,-0.84403086,-0.23334077,0.0,0.0,0,-1.346006
-0.62664676,1.1952677,-0.07721235,-0.04916846,-0.8556978,-0.2333386,0.0,0.0,0,-1.352071
-0.627496,1.1941984,-0.077225216,-0.053496007,-0.86736465,-0.2333364,0.0,0.0,0,-1.357063
-0.6283444,1.1930331,-0.0772382,-0.057823457,-0.87903136,-0.23333421,0.0,0.0,0,-1.361035
-0.6291918,1.1917719,-0.07725132,-0.062150802,-0.89069796,-0.23333201,0.0,0.0,2,4.003982
-0.6295093,1.1910615,-0.024361389,-0.037727337,-0.90237767,-0.23359366,0.0,0.0,2,-0.595130
-0.6292963,1.1906495,0.028242495,-0.024223914,-0.9134939,-0.2223244,0.0,0.0,2,-5.134052
-0.6286352,1.1909566,0.07338174,0.007287747,-0.92533684,-0.23685925,0.0,0.0,2,-7.245493
-0.6274256,1.191751,0.12807402,0.028936619,-0.9370936,-0.23513599,0.0,0.0,0,-1.091233
-0.62621504,1.1924492,0.1280601,0.024609685,-0.9488503,-0.23513374,0.0,0.0,0,-1.096635
-0.62500346,1.1930515,0.12804604,0.020282859,-0.9606069,-0.2351315,0.0,0.0,0,-1.102239
-0.62379086,1.1935574,0.12803183,0.015956145,-0.97236335,-0.23512927,0.0,0.0,0,-1.108043
-0.62257725,1.1939672,0.12801751,0.011629545,-0.9841197,-0.23512702,0.0,0.0,0,-1.113998
-0.6213626,1.194281,0.1280031,0.007303055,-0.99587595,-0.23512478,0.0,0.0,0,-1.120042
-0.620147,1.1944984,0.12798858,0.0029766788,-1.0076321,-0.23512253,0.0,0.0,0,-1.126144
-0.6189303,1.1946197,0.12797393,-0.0013495827,-1.0193882,-0.2351203,0.0,0.0,0,-1.132236
-0.61771256,1.1946447,0.12795916,-0.00567573,-1.0311441,-0.23511803,0.0,0.0,0,-1.138281
-0.6164937,1.1945735,0.1279443,-0.01000176,-1.0429,-0.23511577,0.0,0.0,0,-1.144218
-0.6152739,1.1944058,0.12792933,-0.014327674,-1.0546557,-0.23511353,0.0,0.0,1,-0.412290
-0.61408854,1.1942412,0.1231914,-0.012844784,-1.0640373,-0.18763243,0.0,0.0,1,-0.148869
-0.6129439,1.1940672,0.11796284,-0.011965653,-1.0711949,-0.14315234,0.0,0.0,1,0.146882
-0.6118386,1.1939126,0.11265363,-0.009471952,-1.0755851,-0.08780573,0.0,0.0,1,0.158105
-0.6107591,1.1937481,0.10909178,-0.008725759,-1.0779535,-0.04736722,0.0,0.0,0,-0.207208
-0.60967946,1.1934863,0.10909115,-0.0130459815,-1.0803218,-0.047367223,0.0,0.0,0,-0.215351
-0.6085999,1.1931274,0.10909053,-0.017366203,-1.0826901,-0.0473672,0.0,0.0,0,-0.223200
-0.6075202,1.1926712,0.109089896,-0.021686424,-1.0850585,-0.047367197,0.0,0.0,0,-0.230736
-0.6064405,1.192118,0.10908928,-0.026006643,-1.0874268,-0.047367193,0.0,0.0,0,-0.237841
-0.6053607,1.1914675,0.109088644,-0.030326862,-1.0897951,-0.047367148,0.0,0.0,1,0.712956
-0.6043195,1.1908449,0.10385092,-0.027332494,-1.0892303,0.011297333,0.0,0.0,1,0.800974
-0.6033127,1.1902146,0.099396504,-0.026379218,-1.0864882,0.054840166,0.0,0.0,1,1.067431
-0.60233736,1.1895955,0.09503917,-0.024378944,-1.0812283,0.1051994,0.0,0.0,1,1.400877
-0.60139894,1.1889924,0.090037234,-0.022080583,-1.0732923,0.15872033,0.0,0.0,0,0.786735
-0.60046005,1.1882925,0.09003025,-0.02640309,-1.0653563,0.15871966,0.0,0.0,0,0.777028
-0.5995206,1.187496,0.0900233,-0.030725634,-1.0574203,0.15871897,0.0,0.0,0,0.768056
-0.5985807,1.1866024,0.09001638,-0.03504822,-1.0494844,0.1587183,0.0,0.0,0,0.759865
-0.5976404,1.1856123,0.090009496,-0.039370842,-1.0415485,0.15871762,0.0,0.0,0,0.752536
-0.5966996,1.1845255,0.09000264,-0.043693498,-1.0336126,0.15871695,0.0,0.0,0,0.746045
-0.59575826,1.1833417,0.08999582,-0.04801619,-1.0256768,0.15871625,0.0,0.0,0,0.740409
-0.59481645,1.1820612,0.08998902,-0.052338917,-1.0177411,0.15871553,0.0,0.0,0,0.735621
-0.59387416,1.1806841,0.08998226,-0.056661684,-1.0098053,0.15871482,0.0,0.0,0,0.731676
-0.5929314,1.1792101,0.08997553,-0.060984485,-1.0018696,0.15871415,0.0,0.0,0,0.728523
-0.5919882,1.1776392,0.089968845,-0.06530732,-0.9939339,0.15871345,0.0,0.0,0,0.726128
-0.59104455,1.1759719,0.089962184,-0.06963018,-0.9859983,0.15871273,0.0,0.0,0,0.724490
-0.5901004,1.1742076,0.08995557,-0.0739531,-0.9780627,0.15871203,0.0,0.0,0,0.723557
-0.5891558,1.1723465,0.08994898,-0.07827604,-0.9701271,0.15871134,0.0,0.0,0,0.723250
-0.5882107,1.1703888,0.089942425,-0.082599014,-0.9621916,0.15871063,0.0,0.0,0,0.723588
-0.58726513,1.1683344,0.08993591,-0.08692203,-0.95425606,0.15870993,0.0,0.0,0,0.724487
-0.58631915,1.1661831,0.089929424,-0.09124508,-0.9463206,0.15870924,0.0,0.0,0,0.725923
-0.5853727,1.1639352,0.08992298,-0.09556816,-0.9383852,0.15870854,0.0,0.0,0,0.727859
-0.5844258,1.1615906,0.08991657,-0.099891275,-0.9304498,0.15870783,0.0,0.0,0,0.730259
-0.58347845,1.1591493,0.0899102,-0.10421442,-0.92251444,0.15870716,0.0,0.0,0,0.733061
-0.5825307,1.1566116,0.089903876,-0.1085376,-0.9145791,0.15870647,0.0,0.0,0,0.736295
-0.5815824,1.153977,0.08989758,-0.11286082,-0.9066438,0.15870576,0.0,0.0,0,0.739883
-0.58063376,1.1512457,0.08989132,-0.117184065,-0.8987086,0.15870507,0.0,0.0,0,0.743808
-0.5796846,1.1484177,0.0898851,-0.121507354,-0.89077336,0.1587044,0.0,0.0,0,0.748028
-0.5787351,1.1454933,0.089878924,-0.12583067,-0.8828382,0.15870374,0.0,0.0,0,0.752555
-0.57778513,1.142472,0.089872785,-0.130154,-0.874903,0.15870301,0.0,0.0,0,0.757331
-0.5768348,1.139354,0.08986668,-0.1344774,-0.8669679,0.15870233,0.0,0.0,0,0.762357
-0.5758839,1.1361395,0.089860626,-0.13880081,-0.8590328,0.15870163,0.0,0.0,0,0.767602
-0.5749327,1.1328284,0.089854605,-0.14312427,-0.85109776,0.15870094,0.0,0.0,0,0.773070
-0.573981,1.1294203,0.08984862,-0.14744774,-0.8431628,0.15870024,0.0,0.0,0,0.778703
-0.5730289,1.1259156,0.08984269,-0.15177123,-0.8352278,0.15869956,0.0,0.0,0,0.784520
-0.57207644,1.1223143,0.0898368,-0.15609476,-0.82729286,0.15869887,0.0,0.0,0,0.790490
-0.57112354,1.1186165,0.08983095,-0.16041832,-0.81935793,0.15869817,0.0,0.0,0,0.796613
-0.5701702,1.1148219,0.08982514,-0.16474192,-0.81142306,0.15869747,0.0,0.0,3,-0.264193
-0.5691627,1.1108379,0.09689652,-0.17437762,-0.805919,0.110081516,0.0,0.0,3,-0.383974
-0.5681071,1.106673,0.10322342,-0.18349622,-0.8025997,0.06638479,0.0,0.0,3,-0.399817
-0.5670165,1.1023393,0.107969366,-0.19185568,-0.8010383,0.031227848,0.0,0.0,3,-0.717063
-0.5658802,1.0978254,0.11402259,-0.20088953,-0.80159914,-0.011216399,0.0,0.0,0,0.029126
-0.5647439,1.0932143,0.11402257,-0.20520954,-0.80215997,-0.011216388,0.0,0.0,0,0.035773
-0.56360763,1.0885061,0.11402253,-0.20952958,-0.8027208,-0.011216319,0.0,0.0,0,0.042512
-0.5624714,1.0837005,0.11402249,-0.21384959,-0.8032816,-0.011216453,0.0,0.0,0,0.049315
-0.56133515,1.0787978,0.114022456,-0.21816963,-0.8038424,-0.011216458,0.0,0.0,0,0.056172
-0.56019884,1.0737978,0.114022434,-0.22248966,-0.80440325,-0.011216454,0.0,0.0,0,0.063085
-0.5590626,1.0687008,0.1140224,-0.22680968,-0.80496407,-0.011216467,0.0,0.0,0,0.070065
-0.5579263,1.0635065,0.11402236,-0.23112969,-0.8055249,-0.011216482,0.0,0.0,0,0.077078
-0.55679,1.058215,0.11402234,-0.2354497,-0.8060857,-0.011216472,0.0,0.0,0,0.084147
-0.5556537,1.0528263,0.1140223,-0.23976973,-0.8066465,-0.011216322,0.0,0.0,0,0.091244
-0.55451745,1.0473404,0.11402227,-0.24408974,-0.80720735,-0.011216259,0.0,0.0,0,0.098375
-0.55338115,1.0417573,0.11402224,-0.24840975,-0.80776817,-0.011216258,0.0,0.0,0,0.105548
-0.5522449,1.0360771,0.11402221,-0.25272977,-0.808329,-0.011216289,0.0,0.0,0,0.112740
-0.5511086,1.0302997,0.11402218,-0.25704977,-0.8088898,-0.0112163,0.0,0.0,0,0.119950
-0.5499723,1.0244251,0.11402216,-0.2613698,-0.8094506,-0.011216277,0.0,0.0,0,0.127196
-0.548836,1.0184534,0.114022136,-0.26568982,-0.81001145,-0.011216391,0.0,0.0,0,0.134464
-0.5476997,1.0123843,0.1140221,-0.2700098,-0.81057227,-0.011216377,0.0,0.0,0,0.141719
-0.5465634,1.0062181,0.114022076,-0.27432978,-0.8111331,-0.011216619,0.0,0.0,0,0.149001
-0.54542714,0.9999546,0.114022054,-0.2786498,-0.8116939,-0.01121646,0.0,0.0,0,0.156286
-0.5442908,0.99359393,0.11402203,-0.2829698,-0.8122547,-0.011216525,0.0,0.0,0,0.163565
-0.5431545,0.9871362,0.114021994,-0.28728977,-0.81281555,-0.011216507,0.0,0.0,0,0.170856
-0.5420182,0.98058116,0.11402196,-0.2916098,-0.81337637,-0.011216443,0.0,0.0,0,0.178147
-0.5408819,0.97392887,0.11402192,-0.29592982,-0.8139372,-0.011216628,0.0,0.0,2,0.595730
-0.5393133,0.96783143,0.1573066,-0.27131537,-0.81458735,-0.013002979,0.0,0.0,2,-0.672753
-0.53722245,0.96231437,0.20944385,-0.24545926,-0.81509984,-0.010249645,0.0,0.0,2,-2.628651
-0.5344549,0.95743775,0.27676955,-0.216751,-0.8151222,-0.0004465336,0.0,0.0,0,0.298960
-0.5316873,0.95246404,0.27676955,-0.221071,-0.81514454,-0.00044653524,0.0,0.0,0,0.304251
-0.52891976,0.9473929,0.27676955,-0.225391,-0.8151669,-0.0004467497,0.0,0.0,0,0.309572
-0.52615225,0.9422247,0.27676955,-0.22971101,-0.81518924,-0.0004468103,0.0,0.0,0,0.314994
-0.5233847,0.93695927,0.27676955,-0.234031,-0.8152116,-0.0004468339,0.0,0.0,0,0.320481
-0.5206171,0.9315966,0.27676955,-0.23835102,-0.81523395,-0.0004468429,0.0,0.0,0,0.326021
-0.51784956,0.92613673,0.27676955,-0.24267101,-0.8152563,-0.00044684176,0.0,0.0,0,0.331623
-0.515082,0.9205798,0.27676955,-0.24699101,-0.81527865,-0.0004468413,0.0,0.0,0,0.337304
-0.51231444,0.9149255,0.27676955,-0.251311,-0.815301,-0.00044684246,0.0,0.0,2,-2.705834
-0.5089516,0.9098664,0.3360724,-0.2246982,-0.81498986,0.006223039,0.0,0.0,2,-1.160187
-0.5052675,0.90542006,0.3685951,-0.19774027,-0.8152534,-0.0052702567,0.0,0.0,2,-4.355975
-0.50089896,0.90196884,0.43722796,-0.1536539,-0.81579864,-0.010905276,0.0,0.0,0,0.322539
-0.49653053,0.89842045,0.43722802,-0.15797393,-0.8163439,-0.010905289,0.0,0.0,0,0.327078
-0.49216205,0.8947749,0.43722796,-0.16229394,-0.81688917,-0.010905256,0.0,0.0,0,0.331673
-0.48779353,0.89103216,0.4372279,-0.16661397,-0.81743443,-0.0109049985,0.0,0.0,0,0.336323
-0.48342508,0.8871921,0.43722787,-0.17093398,-0.8179797,-0.010905153,0.0,0.0,0,0.341011
-0.4790566,0.8832549,0.4372279,-0.175254,-0.81852496,-0.010905137,0.0,0.0,0,0.345760
-0.4746881,0.87922055,0.43722796,-0.17957403,-0.8190702,-0.010905122,0.0,0.0,0,0.350584
-0.4703196,0.87508893,0.43722796,-0.18389402,-0.8196155,-0.0109051205,0.0,0.0,0,0.355461
-0.4659511,0.87086004,0.4372279,-0.18821405,-0.82016075,-0.010905084,0.0,0.0,0,0.360366
-0.4615826,0.8665342,0.43722787,-0.19253404,-0.820706,-0.010905193,0.0,0.0,0,0.365345
-0.45721412,0.86211103,0.43722787,-0.19685405,-0.8212513,-0.010905187,0.0,0.0,0,0.370379
-0.45284563,0.8575906,0.4372279,-0.20117405,-0.82179654,-0.010905112,0.0,0.0,0,0.375455
-0.44847712,0.8529732,0.43722787,-0.20549408,-0.8223418,-0.0109051475,0.0,0.0,0,0.380615
-0.44410864,0.84825844,0.43722782,-0.2098141,-0.82288706,-0.010905152,0.0,0.0,1,1.295556
-0.43978634,0.8435249,0.43117452,-0.20962779,-0.8213603,0.030535256,0.0,0.0,1,1.593278
-0.43551618,0.8387767,0.42440844,-0.20916878,-0.81758946,0.07541673,0.0,0.0,1,1.850590
-0.4312996,0.8340175,0.41742033,-0.2085264,-0.81149447,0.12190014,0.0,0.0,1,1.940777
-0.427128,0.8292402,0.4114611,-0.20835306,-0.8033469,0.16295052,0.0,0.0,1,2.428466
-0.42301354,0.8244719,0.40377337,-0.20667045,-0.7924985,0.21696702,0.0,0.0,1,2.573286
-0.41895524,0.8196905,0.3964073,-0.20620921,-0.7793287,0.26339644,0.0,0.0,1,2.757783
-0.41494656,0.8149026,0.38964057,-0.20550202,-0.7638599,0.3093761,0.0,0.0,1,2.985602
-0.41099054,0.8101008,0.3825588,-0.2052166,-0.74616337,0.35393065,0.0,0.0,1,3.013280
-0.40707517,0.80527526,0.37688226,-0.20559028,-0.72661954,0.39087656,0.0,0.0,1,3.618344
-0.4032248,0.8004516,0.36807224,-0.20452975,-0.7044063,0.44426402,0.0,0.0,1,3.478267
-0.39941996,0.7955958,0.36178607,-0.20544907,-0.68040156,0.48009515,0.0,0.0,1,3.941167
-0.39567724,0.79072493,0.35332888,-0.20545037,-0.6540536,0.52695847,0.0,0.0,1,3.961129
-0.39198738,0.7858192,0.34607935,-0.20662399,-0.62583023,0.5644684,0.0,0.0,1,4.174960
-0.38834858,0.78089035,0.33884606,-0.20734009,-0.59563476,0.6039107,0.0,0.0,0,3.405737
-0.3847053,0.7758744,0.33878028,-0.21172282,-0.5654411,0.6038728,0.0,0.0,0,3.409567
-0.38105768,0.77077144,0.33871737,-0.21610683,-0.5352494,0.6038348,0.0,0.0,0,3.413442
-0.37740594,0.76558185,0.33865738,-0.22049206,-0.50505966,0.60379684,0.0,0.0,0,3.417371
-0.37375027,0.7603057,0.33860037,-0.22487849,-0.47487172,0.60375893,0.0,0.0,0,3.421352
-0.37009096,0.754943,0.3385464,-0.22926602,-0.44468567,0.603721,0.0,0.0,0,3.425378
-0.3664282,0.7494939,0.33849552,-0.2336546,-0.41450152,0.6036831,0.0,0.0,0,3.429413
-0.3627622,0.74395895,0.33844775,-0.2380442,-0.38431925,0.60364527,0.0,0.0,0,3.433521
-0.3590932,0.73833805,0.33840317,-0.24243471,-0.35413888,0.60360736,0.0,0.0,0,3.437672
-0.3554214,0.7326313,0.3383618,-0.24682608,-0.32396042,0.60356945,0.0,0.0,0,3.441874
-0.35174704,0.7268389,0.33832368,-0.25121823,-0.29378384,0.60353154,0.0,0.0,0,3.446125
-0.34807044,0.7209608,0.33828884,-0.25561112,-0.26360917,0.60349363,0.0,0.0,0,3.450418
-0.34439167,0.71499723,0.3382573,-0.2600047,-0.23343639,0.6034558,0.0,0.0,0,3.454764
-0.34071106,0.7089483,0.33822912,-0.26439887,-0.20326549,0.60341793,0.0,0.0,0,3.459161
-0.3370289,0.70281404,0.33820432,-0.26879358,-0.17309651,0.60338,0.0,0.0,2,4.962859
-0.33322263,0.69770926,0.35048768,-0.22364399,-0.14296283,0.60267395,0.0,0.0,2,5.238027
-0.32933426,0.69391435,0.35880846,-0.16605107,-0.113073885,0.5977794,0.0,0.0,0,3.320522
-0.32544503,0.6900341,0.35879412,-0.17044553,-0.08318677,0.5977427,0.0,0.0,0,3.323337
-0.3215552,0.6860686,0.35878316,-0.17484026,-0.053301495,0.5977058,0.0,0.0,0,3.326239
-0.31766492,0.6820177,0.35877553,-0.17923516,-0.023418069,0.59766895,0.0,0.0,0,2.036493
-0.3137745,0.6778815,0.35877123,-0.18363017,0.006463525,0.5976321,0.0,0.0,0,-2.643715
-0.30988413,0.6736599,0.3587703,-0.18802524,0.03634328,0.59759533,0.0,0.0,0,-2.640252
-0.30599412,0.66935307,0.35877278,-0.19242027,0.06622119,0.5975586,0.0,0.0,0,-2.636702
-0.30210465,0.6649608,0.3587786,-0.19681522,0.09609727,0.59752184,0.0,0.0,0,-2.633068
-0.29821596,0.66048306,0.35878775,-0.20121002,0.12597151,0.59748507,0.0,0.0,0,-2.629406
-0.2943283,0.65592015,0.3588003,-0.20560461,0.1558439,0.5974483,0.0,0.0,0,-2.625617
-0.29044184,0.6512715,0.35881615,-0.20999892,0.18571448,0.5974116,0.0,0.0,1,-2.056805
-0.28663668,0.6465208,0.34883744,-0.21542962,0.2176232,0.63817495,0.0,0.0,1,-2.454889
-0.28289405,0.6416595,0.34121898,-0.22127655,0.2511423,0.67038167,0.0,0.0,1,-2.632882
-0.27921563,0.636686,0.33346742,-0.22730634,0.2863208,0.7035711,0.0,0.0,0,-3.161175
-0.27554035,0.6316312,0.33350897,-0.2317267,0.32149634,0.7035111,0.0,0.0,0,-3.157368
-0.27186853,0.6264948,0.33355576,-0.23614603,0.3566689,0.70345116,0.0,0.0,0,-3.153468
-0.26820055,0.62127674,0.33360773,-0.24056418,0.39183843,0.7033912,0.0,0.0,0,-3.149433
-0.2645368,0.6159764,0.33366483,-0.24498105,0.427005,0.70333135,0.0,0.0,3,-3.545667
-0.26080626,0.610638,0.34271517,-0.24683234,0.46012914,0.6624835,0.0,0.0,3,-3.304937
-0.25701648,0.6052505,0.35073948,-0.24911398,0.49146608,0.62673956,0.0,0.0,3,-3.203365
-0.2531444,0.59983766,0.36167836,-0.24996251,0.52024794,0.57563746,0.0,0.0,3,-2.814219
-0.2492105,0.5943906,0.37002957,-0.2512687,0.5470086,0.5352129,0.0,0.0,0,-2.264402
-0.24527994,0.58885425,0.37007564,-0.25564063,0.5737679,0.5351864,0.0,0.0,0,-2.259456
-0.24135284,0.5832287,0.3701237,-0.2600117,0.60052586,0.53516,0.0,0.0,0,-2.254449
-0.23742929,0.5775139,0.37017387,-0.26438186,0.6272825,0.53513366,0.0,0.0,3,-2.486013
-0.23344345,0.57178694,0.37873128,-0.26434737,0.6516824,0.4879988,0.0,0.0,3,-2.326320
-0.22938271,0.566048,0.38866866,-0.26409543,0.67345005,0.43535456,0.0,0.0,3,-1.939576
-0.2252644,0.560294,0.39648843,-0.26404637,0.6929621,0.39024073,0.0,0.0,3,-1.661059
-0.22109666,0.5545197,0.40324798,-0.26424065,0.7104353,0.34946284,0.0,0.0,3,-1.473518
-0.21688247,0.54871017,0.4094345,-0.2651716,0.7261332,0.31395972,0.0,0.0,0,-1.104832
-0.2126698,0.54280585,0.40945497,-0.2695072,0.74183095,0.3139544,0.0,0.0,3,-1.233432
-0.20840044,0.5369012,0.4171318,-0.26849824,0.7550341,0.264063,0.0,0.0,3,-1.075554
-0.2040708,0.53097373,0.4249158,-0.26853877,0.7659943,0.21920392,0.0,0.0,3,-0.851062
-0.1996746,0.5250359,0.43349212,-0.26785973,0.774408,0.16827321,0.0,0.0,3,-0.586224
-0.19521523,0.51908225,0.4416048,-0.26744765,0.78041095,0.12005919,0.0,0.0,3,-0.285066
-0.19069195,0.51313275,0.44998154,-0.26597947,0.78368384,0.06545729,0.0,0.0,0,0.175395
-0.18616867,0.5070862,0.4499825,-0.27030006,0.78695667,0.06545721,0.0,0.0,0,0.181038
-0.18164548,0.5009425,0.4499835,-0.2746207,0.7902295,0.06545715,0.0,0.0,0,0.186721
-0.1771224,0.49470177,0.4499845,-0.27894133,0.79350233,0.06545709,0.0,0.0,0,0.192458
-0.1725994,0.48836383,0.44998544,-0.28326192,0.79677516,0.065456934,0.0,0.0,2,2.937302
-0.16829042,0.48248857,0.42820066,-0.26296794,0.8005896,0.07628967,0.0,0.0,2,5.166836
-0.16448097,0.47701308,0.37861454,-0.24496159,0.80389524,0.06611202,0.0,0.0,2,8.280309
-0.16145869,0.47225797,0.30041158,-0.21260034,0.80649024,0.051898457,0.0,0.0,2,4.857745
-0.15884285,0.4681459,0.25952587,-0.184195,0.8094311,0.05881693,0.0,0.0,0,-0.063626
-0.15622711,0.4639367,0.25952667,-0.18851547,0.8123719,0.05881688,0.0,0.0,0,-0.058491
-0.15361138,0.45963037,0.25952747,-0.19283599,0.8153128,0.05881683,0.0,0.0,0,-0.053243
-0.15099564,0.45522696,0.25952825,-0.19715649,0.8182536,0.05881678,0.0,0.0,2,5.596026
-0.14889364,0.4514526,0.20815954,-0.1692043,0.82120496,0.059028685,0.0,0.0,2,7.018044
-0.14738102,0.44866955,0.14881943,-0.12545007,0.82475495,0.07099946,0.0,0.0,2,7.215222
-0.14647742,0.44696474,0.08741235,-0.07790636,0.82905376,0.08597566,0.0,0.0,0,-0.522488
-0.1455739,0.4451629,0.08741407,-0.08222742,0.83335257,0.08597555,0.0,0.0,0,-0.521533
-0.14467058,0.44326395,0.0874158,-0.08654847,0.8376513,0.08597545,0.0,0.0,0,-0.519991
-0.14376736,0.44126803,0.08741753,-0.090869516,0.84195006,0.08597532,0.0,0.0,0,-0.517888
-0.14286414,0.43917504,0.08741928,-0.09519055,0.8462488,0.0859752,0.0,0.0,0,-0.515286
-0.1419611,0.43698508,0.087421015,-0.099511586,0.85054755,0.085975096,0.0,0.0,0,-0.512198
-0.14105825,0.434698,0.08742277,-0.10383261,0.8548463,0.08597496,0.0,0.0,0,-0.508690
-0.14015551,0.43231395,0.08742453,-0.10815363,0.85914505,0.08597483,0.0,0.0,0,-0.504766
-0.13925286,0.42983288,0.08742629,-0.11247466,0.8634438,0.08597474,0.0,0.0,0,-0.500466
-0.1383504,0.42725468,0.08742806,-0.11679567,0.86774254,0.08597467,0.0,0.0,0,-0.495836
-0.13744803,0.42457947,0.08742984,-0.121116675,0.8720413,0.08597455,0.0,0.0,0,-0.490890
-0.13654575,0.4218073,0.087431625,-0.12543768,0.87634003,0.08597444,0.0,0.0,0,-0.485639
-0.13564368,0.41893795,0.08743341,-0.12975867,0.8806387,0.08597429,0.0,0.0,0,-0.480133
-0.1347417,0.41597158,0.087435216,-0.13407968,0.8849374,0.08597418,0.0,0.0,2,4.707769
-0.13463935,0.41357267,0.007958698,-0.10847148,0.8884795,0.07084145,0.0,0.0,2,1.559220
-0.13484803,0.41172138,-0.023526877,-0.08447323,0.8926571,0.08355291,0.0,0.0,2,-3.938933
-0.1359106,0.41054294,-0.10851224,-0.05424625,0.8962058,0.07097318,0.0,0.0,0,-0.466546
-0.13697329,0.40926734,-0.108510986,-0.058566913,0.89975446,0.07097311,0.0,0.0,0,-0.469540
-0.13803606,0.4078946,-0.10850974,-0.06288757,0.90330315,0.07097306,0.0,0.0,0,-0.471986
-0.13909893,0.40642485,-0.10850849,-0.06720824,0.90685177,0.070973024,0.0,0.0,0,-0.473903
-0.1401619,0.404858,-0.10850724,-0.0715289,0.9104004,0.07097299,0.0,0.0,0,-0.475297
-0.14122505,0.40319404,-0.10850599,-0.07584954,0.913949,0.07097293,0.0,0.0,0,-0.476191
-0.14228821,0.401433,-0.108504735,-0.080170184,0.91749763,0.070972845,0.0,0.0,3,0.514698
-0.14330816,0.39967033,-0.10273262,-0.078983285,0.9186925,0.02389748,0.0,0.0,3,0.683311
-0.14428625,0.39789772,-0.09719913,-0.07824913,0.91769826,-0.019885344,0.0,0.0,3,1.127358
-0.14520636,0.39612523,-0.0897802,-0.07684003,0.9140839,-0.072287425,0.0,0.0,0,0.219735
-0.14612655,0.39425564,-0.08977889,-0.081160694,0.91046953,-0.072287396,0.0,0.0,0,0.219773
-0.14704685,0.39228904,-0.08977758,-0.08548137,0.90685517,-0.072287366,0.0,0.0,0,0.220369
-0.14796725,0.3902253,-0.089776285,-0.08980204,0.9032408,-0.072287306,0.0,0.0,0,0.221464
-0.14888772,0.3880645,-0.08977498,-0.09412273,0.89962643,-0.07228725,0.0,0.0,0,0.223035
-0.14980832,0.38580653,-0.08977369,-0.09844341,0.89601207,-0.072287165,0.0,0.0,0,0.225021
-0.1507289,0.38345146,-0.089772396,-0.1027641,0.8923977,-0.072287135,0.0,0.0,0,0.227383
-0.15164956,0.38099945,-0.08977111,-0.10708479,0.88878334,-0.07228709,0.0,0.0,3,1.188813
-0.152524,0.37853667,-0.08368147,-0.106394365,0.88293177,-0.117031716,0.0,0.0,3,1.293081
-0.15336151,0.37606,-0.078667484,-0.10597477,0.8750597,-0.15744136,0.0,0.0,3,1.557988
-0.15414867,0.3735627,-0.07219493,-0.10583041,0.8650634,-0.19992639,0.0,0.0,3,2.032198
-0.15487957,0.37107942,-0.06463424,-0.10382355,0.8522665,-0.25593933,0.0,0.0,3,1.900734
-0.15556669,0.36856714,-0.058852416,-0.104243524,0.83759886,-0.29335243,0.0,0.0,3,2.105902
-0.1562132,0.36603543,-0.05327784,-0.10423158,0.82096833,-0.3326123,0.0,0.0,3,2.211423
-0.15682086,0.36347574,-0.04792957,-0.10472799,0.80255085,-0.36835092,0.0,0.0,3,2.629549
-0.15737057,0.36090812,-0.040161468,-0.104083315,0.78170395,-0.41693777,0.0,0.0,3,2.766494
-0.15787296,0.35833326,-0.03346639,-0.10356745,0.7586182,-0.4617157,0.0,0.0,3,3.114569
-0.15831737,0.3557675,-0.025317203,-0.10221657,0.73287374,-0.5148882,0.0,0.0,3,3.084457
-0.15870695,0.35317785,-0.017743234,-0.10268816,0.7050296,-0.5568839,0.0,0.0,3,3.365850
-0.15904303,0.35058606,-0.010029548,-0.10218596,0.6748278,-0.6040365,0.0,0.0,3,3.585513
-0.15931806,0.3479971,-0.0012965287,-0.101503804,0.64207935,-0.6549696,0.0,0.0,3,3.533317
-0.15953827,0.34537777,0.006469359,-0.102670185,0.6073722,-0.6941424,0.0,0.0,3,3.852614
-0.15969543,0.3427595,0.015581722,-0.1023779,0.570172,-0.744006,0.0,0.0,0,3.518995
-0.15985927,0.3400595,0.015679097,-0.1067948,0.5329753,-0.743935,0.0,0.0,0,3.524848
-0.16002913,0.33727822,0.015770985,-0.11121404,0.49578214,-0.74386406,0.0,0.0,0,3.530676
-0.16020489,0.33441582,0.015857272,-0.11563549,0.4585925,-0.7437932,0.0,0.0,0,3.536452
-0.16038609,0.3314729,0.015937833,-0.120059006,0.42140642,-0.7437223,0.0,0.0,0,3.542216
-0.16057214,0.3284496,0.016012568,-0.124484435,0.38422388,-0.7436515,0.0,0.0,0,3.547938
-0.16076288,0.3253461,0.016081372,-0.12891163,0.3470449,-0.7435807,0.0,0.0,0,3.553635
-0.16095762,0.32216263,0.016144143,-0.13334045,0.3098694,-0.7435099,0.0,0.0,0,3.559265
-0.16115618,0.31889957,0.016200803,-0.13777076,0.27269748,-0.74343914,0.0,0.0,0,3.564877
-0.16135788,0.31555697,0.016251272,-0.14220238,0.23552908,-0.7433684,0.0,0.0,0,3.570427
-0.16156235,0.3121351,0.016295485,-0.14663514,0.19836423,-0.74329764,0.0,0.0,0,3.575940
-0.1617692,0.308634,0.016333383,-0.15106894,0.1612029,-0.7432269,0.0,0.0,0,3.581389
-0.16197805,0.30505386,0.016364912,-0.15550357,0.12404511,-0.74315614,0.0,0.0,0,3.586795
-0.16218825,0.30139476,0.016390022,-0.1599389,0.08689088,-0.74308544,0.0,0.0,0,3.592148
-0.16239958,0.29765663,0.0164087,-0.16437478,0.049740154,-0.74301475,0.0,0.0,0,3.597422
-0.16261148,0.29383972,0.016420906,-0.16881102,0.012592989,-0.7429441,0.0,0.0,0,-1.307487
-0.16282359,0.28994393,0.016426628,-0.17324749,-0.024550654,-0.74287355,0.0,0.0,0,-3.820218
-0.1630352,0.28596935,0.016425868,-0.17768398,-0.06169076,-0.742803,0.0,0.0,0,-3.814430
-0.16324607,0.28191578,0.016418617,-0.18212037,-0.09882737,-0.7427324,0.0,0.0,0,-3.808716
-0.16345568,0.27778324,0.016404895,-0.1865565,-0.13596042,-0.7426619,0.0,0.0,2,0.795273
-0.16371393,0.27470985,0.012055805,-0.14048459,-0.17379604,-0.7567136,0.0,0.0,2,-0.767311
-0.164017,0.27237397,0.007965097,-0.10874979,-0.21227707,-0.76962113,0.0,0.0,2,-0.664920
-0.16410895,0.27092707,0.028460573,-0.070164934,-0.25044098,-0.7632787,0.0,0.0,2,-3.547627
-0.16377258,0.27080363,0.07010048,-0.01214243,-0.2877701,-0.74658227,0.0,0.0,0,-3.781995
-0.16343269,0.2706008,0.0700538,-0.016576014,-0.3250956,-0.7465106,0.0,0.0,0,-3.799942
-0.16308899,0.27031812,0.0700008,-0.021008352,-0.36241752,-0.7464389,0.0,0.0,0,-3.816705
-0.1627407,0.26995564,0.069941565,-0.025439285,-0.39973584,-0.74636734,0.0,0.0,0,-3.832122
-0.16238765,0.2695129,0.069876164,-0.02986866,-0.4370506,-0.74629575,0.0,0.0,2,-8.103331
-0.16159897,0.27039564,0.11286776,0.0281742,-0.47439393,-0.7468679,0.0,0.0,0,-3.655468
-0.16080466,0.2711976,0.11279018,0.023748212,-0.5117337,-0.74679613,0.0,0.0,0,-3.663792
-0.16000423,0.27191842,0.11270674,0.019324236,-0.5490699,-0.7467245,0.0,0.0,0,-3.672396
-0.15919724,0.27255785,0.11261753,0.014902417,-0.5864025,-0.7466528,0.0,0.0,0,-3.681243
-0.15838356,0.27311555,0.1125227,0.010482893,-0.6237315,-0.74658114,0.0,0.0,0,-3.690220
-0.15756254,0.27359098,0.11242236,0.0060658017,-0.66105694,-0.74650943,0.0,0.0,0,-3.699286
-0.1567339,0.27398372,0.11231668,0.0016512857,-0.69837874,-0.7464378,0.0,0.0,2,-8.347097
-0.15550251,0.27506492,0.15179215,0.031466626,-0.73582804,-0.74898654,0.0,0.0,0,-3.675834
-0.15426263,0.27606255,0.15167539,0.02705701,-0.77327377,-0.7489141,0.0,0.0,0,-3.680154
-0.1530139,0.27697635,0.1515537,0.022650383,-0.81071585,-0.74884176,0.0,0.0,0,-3.684560
-0.15175638,0.27780578,0.15142724,0.018246857,-0.8481543,-0.7487694,0.0,0.0,0,-3.689000
-0.15048933,0.2785502,0.15129617,0.013846555,-0.8855892,-0.7486971,0.0,0.0,0,-3.693479
-0.14921275,0.27920926,0.15116072,0.009449578,-0.92302036,-0.74862486,0.0,0.0,0,-3.697955
-0.14792633,0.27978218,0.15102103,0.005056044,-0.96044797,-0.74855256,0.0,0.0,1,-3.105693
-0.14666443,0.2803445,0.14633597,0.0051134108,-0.99597496,-0.7105416,0.0,0.0,1,-2.933451
-0.14542656,0.2808981,0.14186238,0.0053924033,-1.0295503,-0.6715086,0.0,0.0,1,-2.740371
-0.14421082,0.2814548,0.13758147,0.0064124013,-1.0609498,-0.62799037,0.0,0.0,0,-3.101428
-0.14298734,0.28192055,0.13747317,0.0020503595,-1.0923471,-0.6279477,0.0,0.0,0,-3.106887
-0.14175615,0.28229523,0.13736296,-0.0023093985,-1.1237423,-0.627905,0.0,0.0,0,-3.112285
-0.14051704,0.28257823,0.13725093,-0.006666838,-1.1551355,-0.62786233,0.0,0.0,0,-3.117582
-0.13926992,0.28276935,0.1371372,-0.011021908,-1.1865265,-0.6278197,0.0,0.0,0,-3.122737
-0.1380148,0.28286806,0.1370219,-0.015374578,-1.2179154,-0.62777716,0.0,0.0,0,-3.127725
-0.13675137,0.28287414,0.13690512,-0.019724818,-1.2493021,-0.62773454,0.0,0.0,1,-2.389624
-0.13551244,0.28290403,0.13270245,-0.017090777,-1.277929,-0.57253647,0.0,0.0,1,-2.329760
-0.13428935,0.28292894,0.12976232,-0.016116196,-1.3044697,-0.5308148,0.0,0.0,1,-2.154630
-0.1330804,0.28294918,0.12716404,-0.015074483,-1.328919,-0.48898673,0.0,0.0,1,-1.884475
-0.13188668,0.28298387,0.124481,-0.01287211,-1.3508482,-0.43858328,0.0,0.0,1,-1.560702
-0.1307127,0.28304768,0.12144474,-0.009745134,-1.3699011,-0.3810582,0.0,0.0,1,-1.509693
-0.1295476,0.28310746,0.11979952,-0.008579502,-1.386859,-0.33915874,0.0,0.0,1,-1.302005
-0.12839527,0.28315282,0.1179173,-0.008007957,-1.401933,-0.30147752,0.0,0.0,1,-0.984664
-0.12725887,0.28322113,0.11568062,-0.00519136,-1.4142767,-0.24687573,0.0,0.0,1,-0.781496
-0.12613526,0.2833042,0.11385535,-0.0028500014,-1.4240806,-0.19607878,0.0,0.0,1,-0.557775
-0.12501879,0.28342068,0.11263777,0.00058006315,-1.430956,-0.13750736,0.0,0.0,1,-0.311693
-0.12390824,0.2835643,0.11162621,0.003652248,-1.4350412,-0.08170301,0.0,0.0,1,-0.138012
-0.122802354,0.28369847,0.110875726,0.0045474307,-1.4371563,-0.04230352,0.0,0.0,1,0.171903
-0.12171078,0.28383037,0.10915218,0.0058968733,-1.4371057,0.0010139687,0.0,0.0,1,0.493401
-0.12063827,0.28398916,0.10685779,0.008986992,-1.4342229,0.057653256,0.0,0.0,1,0.671032
-0.119573876,0.2841852,0.1056077,0.01266266,-1.4283174,0.118109085,0.0,0.0,1,0.967759
-0.11851998,0.28440723,0.10410128,0.01567166,-1.419632,0.17370996,0.0,0.0,0,0.953960
-0.1174654,0.28453225,0.104091786,0.011350715,-1.4109464,0.17370911,0.0,0.0,0,0.944987
-0.11641016,0.2845602,0.10408231,0.0070297145,-1.4022611,0.17370819,0.0,0.0,0,0.935909
-0.115354255,0.28449112,0.10407285,0.0027086616,-1.3935757,0.17370728,0.0,0.0,0,0.926697
-0.11429777,0.28432503,0.10406338,-0.0016124469,-1.3848904,0.17370641,0.0,0.0,0,0.917534
-0.113240525,0.2840619,0.10405394,-0.00593361,-1.3762052,0.1737055,0.0,0.0,0,0.908462
-0.112182714,0.28370178,0.10404451,-0.010254828,-1.36752,0.17370461,0.0,0.0,0,0.899579
-0.11112423,0.28324473,0.1040351,-0.014576099,-1.3588347,0.17370372,0.0,0.0,1,1.427425
-0.11007948,0.28281093,0.10198984,-0.011758839,-1.3474306,0.22808294,0.0,0.0,1,1.602517
-0.10904665,0.28237617,0.10015899,-0.010392312,-1.3338529,0.2715549,0.0,0.0,1,1.956479
-0.10802746,0.28197643,0.09786661,-0.0069284122,-1.3173122,0.3308129,0.0,0.0,1,2.250093
-0.10702219,0.28161043,0.09541416,-0.0035667343,-1.2978424,0.38939697,0.0,0.0,0,2.004539
-0.10601368,0.28114852,0.095367596,-0.007895134,-1.278373,0.38938686,0.0,0.0,0,1.993836
-0.10500193,0.28059104,0.09532129,-0.01222414,-1.2589042,0.3893767,0.0,0.0,0,1.983412
-0.10398712,0.27993786,0.09527525,-0.016553745,-1.2394359,0.38936657,0.0,0.0,0,1.973358
-0.102968976,0.27918908,0.09522951,-0.020883948,-1.2199681,0.3893564,0.0,0.0,0,1.963742
-0.10194769,0.27834487,0.09518407,-0.025214734,-1.2005007,0.38934624,0.0,0.0,0,1.954655
-0.100923344,0.2774053,0.09513896,-0.02954611,-1.181034,0.38933605,0.0,0.0,0,1.946198
-0.099895954,0.27637047,0.09509419,-0.033878073,-1.1615677,0.38932592,0.0,0.0,0,1.938420
-0.09886541,0.27524042,0.095049776,-0.03821062,-1.1421019,0.38931578,0.0,0.0,0,1.931349
-0.09783182,0.27401534,0.095005736,-0.042543728,-1.1226366,0.3893056,0.0,0.0,0,1.925011
-0.096795276,0.27269527,0.0949621,-0.046877407,-1.1031718,0.3892954,0.0,0.0,0,1.919466
-0.095755674,0.27128014,0.09491886,-0.051211655,-1.0837076,0.38928524,0.0,0.0,0,1.914674
-0.094713114,0.26977015,0.09487605,-0.055546455,-1.0642438,0.38927504,0.0,0.0,0,1.910635
-0.0936677,0.26816547,0.09483368,-0.059881814,-1.0447805,0.38926488,0.0,0.0,0,1.907340
-0.092619225,0.26646617,0.09479176,-0.06421772,-1.0253178,0.3892547,0.0,0.0,0,1.904782
-0.09156809,0.26467225,0.09475032,-0.06855417,-1.0058556,0.38924453,0.0,0.0,0,1.902934
-0.0905139,0.26278377,0.094709374,-0.072891146,-0.98639387,0.38923436,0.0,0.0,0,1.901745
-0.08945694,0.26080093,0.094668925,-0.07722866,-0.96693265,0.38922423,0.0,0.0,0,1.901202
-0.08839712,0.25872374,0.094629,-0.081566684,-0.947472,0.38921404,0.0,0.0,0,1.901258
-0.08733473,0.25655237,0.094589606,-0.08590522,-0.9280118,0.38920385,0.0,0.0,0,1.901891
-0.08626966,0.2542868,0.09455076,-0.09024428,-0.9085521,0.38919365,0.0,0.0,0,1.903066
-0.085201934,0.25192717,0.09451248,-0.094583824,-0.8890929,0.38918346,0.0,0.0,0,1.904749
-0.08413162,0.24947341,0.09447477,-0.09892387,-0.8696343,0.38917333,0.0,0.0,0,1.906905
-0.08305874,0.24692567,0.09443766,-0.103264384,-0.8501761,0.3891631,0.0,0.0,0,1.909489
-0.08198328,0.2442841,0.09440115,-0.10760538,-0.83071846,0.38915294,0.0,0.0,0,1.912485
-0.08090534,0.24154873,0.09436526,-0.11194685,-0.8112613,0.3891428,0.0,0.0,0,1.915857
-0.07982512,0.23871961,0.09433001,-0.11628878,-0.7918047,0.38913265,0.0,0.0,0,1.919584
-0.078742504,0.23579687,0.09429541,-0.120631166,-0.7723485,0.38912255,0.0,0.0,0,1.923636
-0.0776576,0.23278049,0.094261475,-0.124974,-0.7528929,0.38911238,0.0,0.0,0,1.927993
-0.07657032,0.22967063,0.094228216,-0.12931727,-0.7334378,0.38910225,0.0,0.0,0,1.932623
-0.07548094,0.22646728,0.09419563,-0.13366097,-0.7139832,0.38909206,0.0,0.0,0,1.937523
-0.074389264,0.22317053,0.09416375,-0.13800508,-0.69452906,0.3890819,0.0,0.0,0,1.942653
-0.0732954,0.21978043,0.09413258,-0.14234962,-0.6750755,0.38907173,0.0,0.0,0,1.948010
-0.07219954,0.21629699,0.09410213,-0.14669453,-0.65562236,0.38906157,0.0,0.0,0,1.953549
-0.071101665,0.21272042,0.09407242,-0.15103985,-0.6361698,0.38905144,0.0,0.0,0,1.959292
-0.070001796,0.20905067,0.09404344,-0.15538552,-0.61671776,0.38904124,0.0,0.0,0,1.965197
-0.06890001,0.20528784,0.094015226,-0.1597316,-0.5972662,0.38903108,0.0,0.0,0,1.971266
-0.06779623,0.20143197,0.09398778,-0.16407801,-0.5778152,0.38902092,0.0,0.0,0,1.977473
-0.06669064,0.1974832,0.093961105,-0.16842477,-0.5583646,0.38901076,0.0,0.0,0,1.983809
-0.06558323,0.1934415,0.093935214,-0.17277187,-0.5389146,0.38900062,0.0,0.0,0,1.990275
-0.064474106,0.18930689,0.09391011,-0.17711928,-0.5194651,0.38899052,0.0,0.0,0,1.996844
-0.06336336,0.18507937,0.093885824,-0.18146703,-0.5000161,0.3889804,0.0,0.0,0,2.003499
-0.062250994,0.18075915,0.09386235,-0.1858151,-0.48056757,0.38897026,0.0,0.0,0,2.010252
-0.061137103,0.1763461,0.0938397,-0.19016345,-0.4611196,0.38896012,0.0,0.0,0,2.017070
-0.060021687,0.17184041,0.093817875,-0.19451211,-0.4416721,0.38895,0.0,0.0,0,2.023949
-0.058904935,0.16724211,0.093796894,-0.19886105,-0.4222251,0.38893983,0.0,0.0,0,2.030893
-0.057786845,0.1625511,0.09377676,-0.20321025,-0.4027786,0.38892967,0.0,0.0,0,2.037870
-0.056667425,0.15776755,0.093757495,-0.20755969,-0.3833326,0.3889195,0.0,0.0,0,2.044879
-0.05554676,0.15289143,0.093739085,-0.21190938,-0.36388713,0.38890934,0.0,0.0,0,2.051900
-0.05442486,0.14792283,0.093721546,-0.2162593,-0.3444422,0.38889915,0.0,0.0,0,2.058929
-0.05330181,0.14286175,0.09370487,-0.22060946,-0.32499772,0.388889,0.0,0.0,0,2.065933
-0.05217781,0.13770826,0.093689084,-0.2249598,-0.3055538,0.38887888,0.0,0.0,0,2.072914
-0.05105276,0.13246237,0.09367419,-0.22931035,-0.28611037,0.38886872,0.0,0.0,0,2.079837
-0.049926758,0.12712413,0.09366019,-0.2336611,-0.26666746,0.3888586,0.0,0.0,0,2.086692
-0.048799895,0.12169348,0.09364709,-0.238012,-0.24722505,0.38884842,0.0,0.0,0,2.093438
-0.047672175,0.11617049,0.0936349,-0.24236307,-0.2277831,0.3888383,0.0,0.0,0,2.100023
-0.04654379,0.11055523,0.093623616,-0.2467143,-0.20834169,0.38882816,0.0,0.0,0,2.106425
-0.045414638,0.1048477,0.093613245,-0.25106564,-0.18890078,0.388818,0.0,0.0,0,2.112574
-0.044284917,0.09904791,0.09360378,-0.25541714,-0.16946037,0.38880786,0.0,0.0,0,2.118389
-0.043154716,0.093155846,0.093595244,-0.25976875,-0.15002047,0.38879776,0.0,0.0,0,2.123780
-0.042023946,0.08717152,0.09358762,-0.26412046,-0.13058108,0.3887876,0.0,0.0,0,2.128600
-0.040892698,0.08109492,0.09358093,-0.26847225,-0.11114222,0.38877743,0.0,0.0,0,2.132650
-0.039761163,0.07492612,0.093575165,-0.27282414,-0.09170384,0.3887673,0.0,0.0,3,1.569412
-0.03856325,0.06864403,0.10187145,-0.27820146,-0.07395686,0.35493937,0.0,0.0,3,1.275256
-0.037275888,0.06225787,0.1130818,-0.28312817,-0.058465872,0.30981967,0.0,0.0,3,1.053597
-0.03590574,0.05575913,0.123462535,-0.28836024,-0.04507049,0.26790774,0.0,0.0,3,0.938624
-0.034460735,0.04915782,0.13286091,-0.29307863,-0.033562154,0.23016667,0.0,0.0,3,0.690750
-0.032938767,0.042445075,0.14249666,-0.29815525,-0.023992017,0.19140275,0.0,0.0,0,1.187927
-0.031416893,0.03563634,0.14249633,-0.30248302,-0.014421947,0.19140154,0.0,0.0,0,1.169425
-0.029894924,0.028731547,0.14249612,-0.30681077,-0.004851929,0.19140035,0.0,0.0,0,0.192858
-0.028373051,0.021730838,0.14249602,-0.31113854,0.0047180173,0.19139917,0.0,0.0,2,2.426971
-0.026716042,0.015709672,0.15535524,-0.26766703,0.014926345,0.20416634,0.0,0.0,2,3.872394
-0.025199985,0.010763607,0.14187983,-0.2199494,0.024537824,0.19222967,0.0,0.0,0,-1.022145
-0.023683835,0.0057215905,0.14188007,-0.22427723,0.034149244,0.19222845,0.0,0.0,0,8.891073
-0.022167778,0.0005835867,0.14188042,-0.22860508,0.043760616,0.19222718,0.0,1.0,0,2.136344
-0.020715524,-0.0040540243,0.1501002,-0.20633735,0.037361536,-0.13000365,0.0,1.0,2,18.608312
-0.019452572,-0.006703153,0.15190531,-0.11730103,0.01204511,-0.506369,1.0,1.0,2,4.782498
-0.018239593,-0.0071551586,0.14401206,-0.02053879,-0.008656929,-0.41188017,1.0,1.0,0,0.099569
-0.016974354,-0.0068780687,0.13593891,0.012221438,-0.017921273,-0.18525921,1.0,1.0,0,0.355498
-0.015682125,-0.0059021735,0.12828831,0.043378275,-0.016988706,0.018664587,1.0,1.0,0,0.239510
-0.014409256,-0.0043756748,0.12217059,0.067896016,-0.011944774,0.10086875,1.0,1.0,2,-0.687598
-0.013294983,-0.002038684,0.10727155,0.103907265,-0.007853973,0.08179732,1.0,1.0,0,0.977748
-0.012177849,0.00015650749,0.10739559,0.097578965,-0.003587927,0.08531894,1.0,1.0,0,-19.181714
-0.011072159,0.0022355055,0.106969036,0.092404164,-3.9528823e-05,0.07096807,0.0,0.0,0,-0.020976
-0.009966468,0.0042174794,0.10696906,0.08808312,0.0035088793,0.07096809,0.0,0.0,0,-0.077932
-0.008860779,0.0061023924,0.10696906,0.083762065,0.0070572468,0.07096754,0.0,0.0,0,-0.123231
-0.0077550886,0.007890318,0.10696907,0.079441,0.01060559,0.070967086,0.0,0.0,0,-0.161723
-0.006649494,0.009581182,0.10696908,0.07511995,0.014153914,0.07096663,0.0,0.0,0,-0.192580
-0.0055438043,0.011175022,0.1069691,0.07079889,0.017702233,0.07096656,0.0,0.0,0,-0.216692
-0.0044381144,0.012671766,0.10696913,0.066477835,0.021250555,0.070966825,0.0,0.0,0,-0.235631
-0.0033324242,0.014071593,0.10696916,0.06215678,0.024798896,0.070967,0.0,0.0,0,-0.250881
-0.002226734,0.01537436,0.1069692,0.057835724,0.028347244,0.07096713,0.0,0.0,0,-0.263672
-0.0011210442,0.016579995,0.10696924,0.05351467,0.031895585,0.07096709,0.0,0.0,0,-0.274940
-1.5449525e-05,0.017688714,0.106969275,0.049193613,0.03544395,0.07096706,0.0,0.0,0,-0.285283
0.0010902404,0.01870037,0.106969334,0.04487256,0.03899229,0.07096699,0.0,0.0,0,-0.295167
0.0021959306,0.019614968,0.106969394,0.0405515,0.042540636,0.07096691,0.0,0.0,0,-0.304898
0.003301525,0.020432506,0.10696945,0.03623044,0.046088964,0.07096684,0.0,0.0,0,-0.314703
0.004407215,0.021153055,0.10696951,0.031909384,0.0496373,0.07096679,0.0,0.0,0,-0.324712
0.00551281,0.021776615,0.106969595,0.027588332,0.053185634,0.07096675,0.0,0.0,0,-0.335007
0.0066184998,0.022303043,0.10696968,0.023267278,0.056733973,0.070966706,0.0,0.0,0,-0.345663
0.007724094,0.022732481,0.10696976,0.018946225,0.060282297,0.07096667,0.0,0.0,0,-0.356705
0.008829689,0.023064934,0.106969856,0.01462517,0.06383063,0.070966616,0.0,0.0,0,-0.368126
0.009935284,0.023300324,0.10696997,0.010304118,0.067378946,0.07096654,0.0,0.0,0,-0.379926
0.0110408785,0.023438655,0.10697006,0.0059830644,0.07092727,0.0709665,0.0,0.0,0,-0.392090
0.012146473,0.023479924,0.106970176,0.0016620118,0.07447559,0.070966415,0.0,0.0,0,-0.404598
0.013252067,0.023424277,0.10697029,-0.0026590407,0.078023896,0.07096638,0.0,0.0,0,-0.417399
0.014357662,0.0232715,0.10697041,-0.0069800927,0.081572205,0.0709663,0.0,0.0,0,-0.430490
0.015463161,0.023021732,0.10697055,-0.011301144,0.085120514,0.07096625,0.0,0.0,0,-0.443840
0.016568756,0.022674903,0.10697069,-0.015622196,0.088668816,0.07096617,0.0,0.0,0,-0.457422
0.017674256,0.022231016,0.10697083,-0.019943248,0.092217125,0.070966125,0.0,0.0,0,-0.471245
0.018779755,0.02169014,0.10697098,-0.0242643,0.09576542,0.07096605,0.0,0.0,1,0.258249
0.019802189,0.021033607,0.09651749,-0.029553376,0.101432666,0.11334473,0.0,0.0,1,-0.051878
0.020748043,0.020274505,0.08693296,-0.034276906,0.109024815,0.15184323,0.0,0.0,1,-0.254948
0.021609688,0.01940504,0.07637944,-0.039385222,0.11875027,0.19450894,0.0,0.0,0,-1.181896
0.022471238,0.018439589,0.076380804,-0.043713097,0.12847565,0.1945077,0.0,0.0,0,-1.197933
0.02333269,0.017378293,0.07638229,-0.048040964,0.13820097,0.19450644,0.0,0.0,0,-1.213852
0.02419405,0.01622101,0.07638388,-0.05236882,0.14792624,0.19450514,0.0,0.0,0,11.854294
0.024862384,0.015461335,0.07347275,-0.0331415,0.14124456,-0.13372308,0.0,1.0,0,0.580449
0.02552328,0.014623914,0.073362306,-0.036567815,0.13393256,-0.14631583,0.0,1.0,1,1.489657
0.026081562,0.0137370685,0.0635,-0.038760606,0.12624969,-0.15372153,0.0,1.0,1,1.471766
0.02654686,0.012835059,0.0542926,-0.039467696,0.11849617,-0.15512386,0.0,1.0,0,0.610954
0.027009297,0.011859522,0.05458804,-0.042729434,0.11017449,-0.16647854,0.0,1.0,0,0.656372
0.027468968,0.010809955,0.054876674,-0.04602044,0.101293124,-0.17766461,0.0,1.0,0,0.700730
0.027925681,0.009686146,0.055158526,-0.04934048,0.09186042,-0.18868442,0.0,1.0,1,1.603531
0.02828455,0.008554254,0.045982018,-0.049728397,0.08181021,-0.20104602,0.0,1.0,1,1.223050
0.028572941,0.007366929,0.0387166,-0.052263595,0.07200949,-0.19603492,0.0,1.0,1,1.631722
0.028767396,0.006204388,0.030729556,-0.05116998,0.060824625,-0.22372934,0.0,1.0,0,0.720715
0.028963756,0.0049433922,0.030824617,-0.0556285,0.049754012,-0.22141644,0.0,1.0,0,0.725289
0.029159928,0.0035867668,0.030825391,-0.05995876,0.038683344,-0.22141464,0.0,1.0,0,0.806243
0.029354,0.0021495677,0.031019026,-0.06361399,0.027212815,-0.22941089,0.0,1.0,1,1.298485
0.029470634,0.0006843305,0.023404177,-0.064947546,0.015619922,-0.2318579,0.0,1.0,1,1.367542
0.029475402,-0.0007913494,0.012198461,-0.06550231,0.004044359,-0.23151128,0.0,1.0,0,9.242494
0.029477406,-0.0023439908,0.012434607,-0.06901815,-0.008034132,-0.24156983,1.0,1.0,0,1.107971
0.029487897,-0.0034591819,0.009941036,-0.049806904,-0.01617483,-0.16201341,1.0,1.0,0,2.833909
0.029541397,-0.0038576864,0.008201725,-0.017762562,-0.018958228,-0.055638634,1.0,1.0,0,0.786777
0.029616928,-0.0035655044,0.0051648184,0.01301936,-0.01661018,0.046958122,1.0,1.0,0,-1.774368
0.029740334,-0.00272254,0.0059994534,0.037518978,-0.010330718,0.12560408,1.0,1.0,0,-0.506198
0.029891491,-0.0015729809,0.0064687207,0.051129054,-0.0017835202,0.17095329,1.0,1.0,0,-0.749116
0.030047512,-0.0003771448,0.0065514273,0.053135052,0.007156872,0.17881413,1.0,1.0,0,-0.204795
0.030184269,0.000689373,0.005829134,0.047343656,0.014898824,0.15483895,1.0,1.0,0,-10.365577
0.0303195,0.0016628718,0.0058120117,0.043169864,0.022523481,0.15249293,0.0,1.0,0,-0.368578
0.030448055,0.0025566912,0.0057258783,0.039602615,0.029564057,0.14081126,0.0,1.0,0,-0.312238
0.030569743,0.0033710098,0.0056378515,0.03605027,0.03601254,0.12896964,0.0,1.0,0,-0.254534
0.030684471,0.0041059707,0.0055480087,0.032512102,0.041861344,0.116976336,0.0,1.0,0,-0.195635
0.030792046,0.004761753,0.005456443,0.0289872,0.0471034,0.10484116,0.0,1.0,0,-0.135779
0.030892467,0.005338428,0.005363259,0.025474608,0.051732134,0.09257476,0.0,1.0,0,-0.075251
0.030985642,0.005836103,0.005268602,0.021973172,0.05574159,0.080188975,0.0,1.0,0,-0.014518
0.031071568,0.0062548853,0.0051726187,0.018481698,0.059126426,0.067696825,0.0,1.0,0,0.045622
0.031150151,0.006594882,0.0050754813,0.014998858,0.061882045,0.055112433,0.0,1.0,0,0.103481
0.03122139,0.0068562008,0.004977376,0.011523243,0.06400458,0.042450618,0.0,1.0,0,0.154816
0.031285286,0.007038841,0.004878495,0.008053372,0.065490924,0.029727075,0.0,1.0,0,0.186524
0.03134165,0.0071428753,0.004779054,0.0045876885,0.06633883,0.016958075,0.0,1.0,0,0.155076
0.03139057,0.00716841,0.0046792696,0.0011246054,0.06654685,0.004160363,0.0,1.0,0,0.007492
0.03143196,0.0071154092,0.0045793583,-0.0023375014,0.066114396,-0.008649016,0.0,1.0,0,-0.126158
0.0314703,0.0069882725,0.0048791226,-0.005602919,0.06507825,-0.020722836,0.0,1.0,0,-0.119492
0.031505585,0.006787071,0.0051781936,-0.008871301,0.06343928,-0.032779403,0.0,1.0,0,-0.078446
0.03153763,0.0065116975,0.005476079,-0.012144673,0.061199028,-0.044805326,0.0,1.0,0,-0.026765
0.03156662,0.006162081,0.0057723136,-0.015424972,0.058359623,-0.056788005,0.0,1.0,0,0.028563
0.03159256,0.005738077,0.006066444,-0.018714063,0.054923885,-0.068714835,0.0,1.0,0,0.085078
0.031615354,0.005239508,0.006358041,-0.022013757,0.050895188,-0.08057381,0.0,1.0,0,0.141697
0.031635094,0.0046662665,0.0066466904,-0.025325742,0.046277523,-0.09235342,0.0,1.0,0,0.197891
0.031651784,0.004018137,0.0069319988,-0.028651586,0.041075382,-0.104042545,0.0,1.0,0,0.253336
0.031665325,0.0032949424,0.007213599,-0.031992774,0.03529383,-0.11563112,0.0,1.0,0,0.307785
0.031676006,0.0024965024,0.0074911686,-0.035350602,0.028938359,-0.12710932,0.0,1.0,0,0.361138
0.031683445,0.0016224957,0.0077644056,-0.03872625,0.022014918,-0.13846876,0.0,1.0,0,0.413197
0.031687927,0.00067270757,0.00803304,-0.04212076,0.01452986,-0.14970143,0.0,1.0,0,0.463891
0.031689454,-0.00035311223,0.008296831,-0.04553499,0.0064898254,-0.16080053,0.0,1.0,0,14.088215
0.031716634,-0.00046773197,0.0036762536,-0.0051098163,0.0055688615,-0.018381141,1.0,1.0,0,0.465214
0.031732656,-0.00046236755,0.0016074261,0.00023378302,0.0055712843,5.9049886e-05,1.0,1.0,0,0.088328
0.0317399,-0.0004614377,0.00073293067,3.7288355e-05,0.005571227,9.406841e-06,1.0,1.0,0,0.068777
0.03173933,-0.00046136617,-4.6381312e-05,-1.1197062e-06,0.005571516,1.4052997e-05,1.0,1.0,0,-0.022472
0.031736564,-0.00046136617,-0.0002700664,-4.2753908e-07,0.0055753314,8.110285e-05,1.0,1.0,0,0.010825
0.031734943,-0.00046136617,-0.00016125184,-9.459906e-08,0.005577521,4.837909e-05,1.0,1.0,0,0.014428
0.031734753,-0.00046136617,-1.7139202e-05,-8.6839105e-09,0.005577546,5.1516154e-06,1.0,1.0,0,-0.002384
0.031735133,-0.00046136617,4.1454117e-05,2.7123072e-08,0.0055766935,-1.24279195e-05,1.0,1.0,0,0.000917
0.03173542,-0.00046136617,3.266459e-05,2.148862e-08,0.005576026,-9.790534e-06,1.0,1.0,0,0.002505
0.031735517,-0.00046136617,7.789522e-06,4.948158e-09,0.005575759,-2.3322332e-06,1.0,1.0,0,0.000232
0.03173542,-0.00046136617,-5.5869664e-06,-3.3735688e-09,0.0055757333,1.6716876e-06,1.0,1.0,0,-0.000052
0.031735323,-0.00046136617,-6.199465e-06,-4.289611e-09,0.0055757356,1.8569347e-06,1.0,1.0,0,0.000401
0.031735323,-0.00046136617,-2.2297374e-06,-1.9535562e-09,0.0055756965,6.700019e-07,1.0,1.0,0,0.000174
0.031735323,-0.00046136617,5.662239e-07,2.9549577e-10,0.0055756164,-1.8572524e-07,1.0,1.0,0,-0.000046
0.031735323,-0.00046136617,1.0958321e-06,6.7414924e-10,0.0055755423,-3.3262938e-07,1.0,1.0,0,0.000062
0.031735323,-0.00046136617,5.2964594e-07,5.333971e-10,0.0055754865,-1.642806e-07,1.0,1.0,0,0.000056
0.031735323,-0.00046136617,-1.7511706e-08,-6.444662e-11,0.005575442,2.215597e-08,1.0,1.0,0,-0.000014
0.031735323,-0.00046136617,-1.8827689e-07,-1.661124e-10,0.005575414,4.8623253e-08,1.0,1.0,0,0.000009
0.031735323,-0.00046136617,-1.2057696e-07,-2.5739394e-10,0.0055753877,5.6083877e-08,1.0,1.0,0,0.000013
0.031735323,-0.00046136617,-2.1338122e-08,1.03060914e-10,0.00557536,2.1144286e-08,1.0,1.0,0,0.000002
0.031735323,-0.00046136617,2.6069056e-08,-8.8767424e-11,0.0055753374,-2.248529e-08,1.0,1.0,0,0.000002
0.031735323,-0.00046136617,2.5402446e-08,1.5860969e-11,0.005575323,-1.8880183e-08,1.0,1.0,0,0.000004
0.031735323,-0.00046136617,1.1778409e-08,-1.27711565e-11,0.005575301,-2.1849262e-08,1.0,1.0,0,0.000002
0.031735323,-0.00046136617,-4.238815e-09,2.7548871e-11,0.005575289,1.3499081e-08,1.0,1.0,0,0.000000
0.031735323,-0.00046136617,-1.1684418e-08,-5.329819e-13,0.005575278,2.2930456e-08,1.0,1.0,0,100
-0.0044994354,1.4207036,-0.4557674,0.43480492,0.0052206083,0.103238106,0.0,0.0,0,-1.206342
-0.008999443,1.4304115,-0.4551506,0.43143794,0.010322149,0.102040604,0.0,0.0,0,-1.182382
-0.013499546,1.4400237,-0.45516682,0.42716247,0.0154206045,0.101978496,0.0,0.0,0,-1.172044
-0.017999839,1.4495388,-0.45518193,0.4228368,0.020518415,0.10196571,0.0,0.0,0,-1.165320
-0.022500228,1.4589572,-0.45519692,0.4185126,0.025615435,0.101949796,0.0,0.0,0,-1.158545
-0.02700081,1.4682785,-0.45521197,0.41418907,0.030711647,0.1019335,0.0,0.0,0,-1.151727
-0.03150158,1.4775031,-0.45522696,0.4098656,0.03580707,0.10191774,0.0,0.0,0,-1.144903
-0.03600254,1.4866307,-0.45524186,0.405542,0.04090169,0.10190159,0.0,0.0,0,-1.138067
-0.040503692,1.4956614,-0.45525676,0.40121827,0.045995515,0.10188566,0.0,0.0,0,-1.131247
-0.04500494,1.5045953,-0.45527154,0.3968944,0.05108854,0.10186988,0.0,0.0,0,-1.124437
-0.049506377,1.5134323,-0.45528626,0.39257044,0.056180764,0.10185393,0.0,0.0,0,-1.117636
-0.054008007,1.5221723,-0.4553009,0.38824642,0.061272223,0.10183837,0.0,0.0,0,-1.110837
-0.058509827,1.5308156,-0.4553155,0.38392222,0.06636288,0.10182247,0.0,0.0,0,-1.104042
-0.06301174,1.539362,-0.45533004,0.379598,0.07145277,0.10180692,0.0,0.0,0,-1.097244
-0.067513846,1.5478113,-0.4553445,0.3752736,0.076541856,0.10179118,0.0,0.0,0,-1.090471
-0.07201614,1.5561635,-0.4553589,0.37094912,0.08163018,0.101775646,0.0,0.0,0,-1.083722
-0.07651863,1.5644193,-0.45537314,0.36662447,0.08671771,0.10176005,0.0,0.0,0,-1.076978
-0.08102121,1.5725778,-0.4553874,0.3622998,0.091804475,0.10174464,0.0,0.0,0,-1.070253
-0.08552408,1.5806396,-0.45540157,0.357975,0.09689047,0.10172917,0.0,0.0,0,-1.063529
-0.09002705,1.5886045,-0.45541567,0.3536501,0.1019757,0.101713896,0.0,0.0,0,-1.056818
-0.0945302,1.5964723,-0.4554297,0.34932506,0.10706016,0.1016985,0.0,0.0,0,-1.050146
-0.09903355,1.6042433,-0.45544362,0.3449999,0.1121439,0.10168338,0.0,0.0,0,-1.043470
-0.10353708,1.6119173,-0.45545745,0.3406747,0.11722685,0.1016681,0.0,0.0,0,-1.036820
-0.10804081,1.6194942,-0.45547122,0.33634937,0.122309044,0.101653114,0.0,0.0,0,-1.030198
-0.11254463,1.6269743,-0.45548493,0.33202392,0.12739049,0.10163796,0.0,0.0,0,-0.951382
-0.117046736,1.6343364,-0.45531458,0.3267524,0.13247176,0.10162522,0.0,0.0,0,-1.014494
-0.12154885,1.6416014,-0.45531422,0.32243022,0.13755299,0.10162489,0.0,0.0,0,-1.007997
-0.12605104,1.6487696,-0.45531374,0.31810808,0.14263423,0.101624705,0.0,0.0,0,-1.001558
-0.13055316,1.6558411,-0.45531327,0.31378594,0.14771548,0.10162463,0.0,0.0,0,-0.995099
-0.13505545,1.6628153,-0.4553128,0.30946383,0.15279672,0.10162456,0.0,0.0,0,-0.988716
-0.13955764,1.6696931,-0.4553123,0.30514172,0.15787792,0.10162412,0.0,0.0,0,-0.982313
-0.14406005,1.6764739,-0.45531178,0.30081958,0.1629591,0.10162363,0.0,0.0,0,-0.975955
-0.14856234,1.6831578,-0.45531124,0.29649746,0.16804028,0.10162339,0.0,0.0,0,-0.969623
-0.15306473,1.689745,-0.45531073,0.29217535,0.17312145,0.10162319,0.0,0.0,0,-0.963301
-0.15756722,1.696235,-0.4553102,0.28785324,0.1782026,0.10162302,0.0,0.0,0,-0.957038
-0.16206971,1.7026284,-0.4553097,0.28353116,0.18328375,0.10162286,0.0,0.0,0,-0.950784
-0.16657218,1.7089249,-0.45530915,0.27920905,0.18836488,0.1016227,0.0,0.0,0,-0.944540
-0.17107478,1.7151245,-0.45530853,0.27488694,0.19344601,0.101622544,0.0,0.0,0,-0.938343
-0.17557736,1.7212272,-0.4553079,0.27056482,0.19852711,0.10162236,0.0,0.0,0,-0.932178
-0.18007994,1.727233,-0.4553073,0.2662427,0.20360821,0.101622164,0.0,0.0,0,-0.926057
-0.18458262,1.7331421,-0.45530668,0.26192057,0.20868932,0.101622,0.0,0.0,0,-0.919931
-0.18908529,1.7389543,-0.455306,0.25759846,0.21377039,0.10162179,0.0,0.0,0,-0.913860
-0.19358806,1.7446697,-0.45530534,0.25327638,0.21885148,0.10162164,0.0,0.0,0,-0.907796
-0.19809084,1.750288,-0.45530462,0.24895425,0.22393255,0.10162145,0.0,0.0,0,-0.901781
-0.20259376,1.7558095,-0.45530385,0.24463215,0.2290136,0.10162129,0.0,0.0,0,-0.895816
-0.20709667,1.7612343,-0.4553031,0.24031004,0.23409466,0.101621166,0.0,0.0,0,-0.889869
-0.21159968,1.7665622,-0.45530233,0.23598793,0.23917572,0.10162102,0.0,0.0,0,-0.883939
-0.21610275,1.7717931,-0.45530158,0.23166583,0.24425676,0.10162084,0.0,0.0,0,-0.878057
-0.22060585,1.7769272,-0.4553008,0.22734374,0.24933779,0.10162069,0.0,0.0,0,-0.872194
-0.22510895,1.7819644,-0.45530003,0.22302166,0.25441882,0.101620495,0.0,0.0,0,-0.866373
-0.22961216,1.7869047,-0.45529923,0.21869954,0.25949982,0.10162032,0.0,0.0,0,-0.860607
-0.23411545,1.7917483,-0.45529842,0.21437746,0.26458082,0.10162016,0.0,0.0,0,-0.854859
-0.23861876,1.796495,-0.45529762,0.21005537,0.2696618,0.101619996,0.0,0.0,0,-0.849145
-0.24312219,1.8011448,-0.45529675,0.2057333,0.2747428,0.10161984,0.0,0.0,0,-0.843465
-0.24762559,1.8056979,-0.4552959,0.20141122,0.2798238,0.10161968,0.0,0.0,0,-0.837795
-0.25212914,1.810154,-0.45529494,0.19708915,0.28490475,0.101619504,0.0,0.0,0,-0.832181
-0.25663266,1.814513,-0.45529404,0.19276707,0.28998575,0.10161936,0.0,0.0,0,-0.826623
-0.26113635,1.8187753,-0.45529312,0.188445,0.29506674,0.1016192,0.0,0.0,0,-0.821059
-0.26564008,1.8229407,-0.45529217,0.1841229,0.30014768,0.10161899,0.0,0.0,0,-0.815569
-0.2701438,1.8270093,-0.4552912,0.17980084,0.30522862,0.101618804,0.0,0.0,0,-0.810083
-0.27464765,1.830981,-0.45529023,0.17547879,0.31030956,0.10161861,0.0,0.0,0,-0.804638
-0.2791516,1.8348557,-0.45528927,0.17115672,0.3153905,0.10161841,0.0,0.0,0,-0.799220
-0.28365555,1.8386334,-0.45528826,0.16683465,0.32047144,0.101618215,0.0,0.0,0,-0.793893
-0.28815967,1.8423147,-0.45528722,0.1625126,0.32555234,0.101618014,0.0,0.0,0,-0.788547
-0.29266375,1.845899,-0.4552862,0.15819055,0.3306332,0.10161785,0.0,0.0,0,-0.783237
-0.29716796,1.8493862,-0.45528516,0.1538685,0.33571407,0.10161767,0.0,0.0,0,-0.777963
-0.30167222,1.8527765,-0.45528412,0.14954646,0.34079495,0.10161749,0.0,0.0,0,-0.772752
-0.3061766,1.8560702,-0.45528308,0.14522442,0.34587583,0.101617314,0.0,0.0,0,-0.767536
-0.31068105,1.8592668,-0.45528197,0.14090239,0.35095665,0.10161712,0.0,0.0,0,-0.762395
-0.31518555,1.8623667,-0.45528087,0.13658036,0.3560375,0.101616934,0.0,0.0,0,-0.757258
-0.31969017,1.8653697,-0.45527977,0.13225833,0.36111835,0.101616755,0.0,0.0,0,-0.752145
-0.32419485,1.8682756,-0.45527864,0.1279363,0.36619917,0.10161654,0.0,0.0,0,-0.747077
-0.32869965,1.8710846,-0.4552775,0.12361429,0.37128,0.10161634,0.0,0.0,0,-0.742063
-0.33320445,1.8737968,-0.45527634,0.119292274,0.37636083,0.10161617,0.0,0.0,0,-0.737077
-0.33770937,1.8764124,-0.45527515,0.11497026,0.38144162,0.10161594,0.0,0.0,0,-0.732100
-0.3422144,1.8789309,-0.45527396,0.11064826,0.38652238,0.10161577,0.0,0.0,0,-0.727189
-0.34671956,1.8813528,-0.45527276,0.10632625,0.39160317,0.10161561,0.0,0.0,0,-0.722242
-0.35122472,1.8836774,-0.45527157,0.10200426,0.3966839,0.101615466,0.0,0.0,0,-0.717383
-0.35572997,1.8859053,-0.4552703,0.09768226,0.40176466,0.101615295,0.0,0.0,0,-0.712537
-0.36023536,1.8880361,-0.45526904,0.093360275,0.40684542,0.10161513,0.0,0.0,0,-0.707742
-0.36474085,1.8900703,-0.45526776,0.08903828,0.4119262,0.10161497,0.0,0.0,0,-0.702915
-0.3692464,1.8920072,-0.45526648,0.084716305,0.41700694,0.10161476,0.0,0.0,0,-0.698178
-0.37375203,1.8938475,-0.45526513,0.080394335,0.4220877,0.10161457,0.0,0.0,0,-0.693492
-0.37825775,1.8955913,-0.4552638,0.07607236,0.4271684,0.10161438,0.0,0.0,0,-0.688757
-0.38276356,1.8972378,-0.4552625,0.071750395,0.43224907,0.10161424,0.0,0.0,0,-0.684093
-0.3872695,1.8987875,-0.45526114,0.06742843,0.43732974,0.101614095,0.0,0.0,0,-0.679440
-0.39177552,1.9002404,-0.45525974,0.06310646,0.44241044,0.101613894,0.0,0.0,0,-0.674807
-0.39628166,1.9015962,-0.45525837,0.058784507,0.4474911,0.101613715,0.0,0.0,0,-0.670204
-0.4007879,1.902855,-0.45525703,0.054462556,0.45257178,0.10161354,0.0,0.0,0,-0.665640
-0.40529418,1.9040172,-0.4552556,0.050140608,0.45765245,0.10161336,0.0,0.0,0,-0.661079
-0.40980062,1.9050823,-0.45525417,0.045818668,0.4627331,0.10161319,0.0,0.0,0,-0.656537
-0.41430718,1.9060506,-0.4552527,0.041496728,0.46781373,0.10161302,0.0,0.0,0,-0.652053
-0.41881377,1.906922,-0.45525128,0.0371748,0.47289437,0.10161284,0.0,0.0,0,-0.647553
-0.42332053,1.9076965,-0.4552498,0.032852873,0.47797498,0.101612665,0.0,0.0,0,-0.643098
-0.42782736,1.9083743,-0.45524827,0.028530952,0.48305556,0.10161245,0.0,0.0,0,-0.638645
-0.43233427,1.9089551,-0.45524675,0.024209036,0.48813617,0.101612285,0.0,0.0,0,-0.634207
-0.43684134,1.9094388,-0.4552452,0.019887125,0.49321675,0.101612106,0.0,0.0,0,-0.629814
-0.4413485,1.9098259,-0.45524365,0.01556522,0.49829736,0.10161189,0.0,0.0,0,-0.625390
-0.4458558,1.9101157,-0.4552421,0.011243322,0.503378,0.10161173,0.0,0.0,0,-0.621023
-0.45036316,1.9103088,-0.45524055,0.006921427,0.50845855,0.10161158,0.0,0.0,0,-0.616655
-0.4548707,1.910405,-0.45523897,0.0025995376,0.51353914,0.10161139,0.0,0.0,0,-0.612326
-0.4593783,1.9104044,-0.4552374,-0.0017223464,0.5186197,0.10161116,0.0,0.0,0,-0.607979
-0.46388602,1.9103069,-0.4552358,-0.006044225,0.52370024,0.10161098,0.0,0.0,0,-0.603674
-0.4683939,1.9101126,-0.4552342,-0.010366098,0.52878076,0.1016108,0.0,0.0,0,-0.599355
-0.47290182,1.9098214,-0.45523256,-0.014687966,0.5338613,0.101610646,0.0,0.0,0,-0.595046
-0.4774099,1.9094331,-0.4552309,-0.019009827,0.5389418,0.10161046,0.0,0.0,0,-0.590751
-0.48191804,1.908948,-0.45522922,-0.023331685,0.5440223,0.101610266,0.0,0.0,0,-0.586467
-0.48642635,1.9083657,-0.45522755,-0.027653536,0.54910284,0.10161011,0.0,0.0,0,-0.582198
-0.4909348,1.9076865,-0.45522588,-0.03197538,0.5541834,0.10160993,0.0,0.0,0,-0.577942
-0.49544334,1.9069105,-0.4552242,-0.03629722,0.5592639,0.101609744,0.0,0.0,0,-0.573705
-0.499952,1.9060379,-0.45522243,-0.040619057,0.56434435,0.101609565,0.0,0.0,0,-0.569454
-0.5044608,1.9050684,-0.45522064,-0.044940885,0.5694248,0.10160939,0.0,0.0,0,-0.565211
-0.50896966,1.9040017,-0.45521894,-0.04926271,0.57450527,0.10160921,0.0,0.0,0,-0.560972
-0.5134787,1.9028382,-0.4552172,-0.053584527,0.57958573,0.101609014,0.0,0.0,0,-0.556734
-0.5179879,1.9015776,-0.45521545,-0.05790634,0.5846662,0.10160887,0.0,0.0,0,-0.552529
-0.5224972,1.9002204,-0.4552137,-0.062228147,0.58974665,0.101608716,0.0,0.0,0,-0.548270
-0.5270066,1.8987658,-0.45521194,-0.06654995,0.59482706,0.10160853,0.0,0.0,0,-0.544073
-0.53151613,1.8972145,-0.45521015,-0.07087174,0.59990746,0.10160835,0.0,0.0,0,-0.539872
-0.5360258,1.8955666,-0.4552083,-0.07519353,0.60498786,0.10160814,0.0,0.0,0,-0.535659
-0.5405356,1.8938217,-0.45520648,-0.079515316,0.61006826,0.10160793,0.0,0.0,0,-0.531437
-0.54504555,1.8919797,-0.45520464,-0.08383708,0.61514866,0.10160776,0.0,0.0,0,-0.527250
-0.54955566,1.8900411,-0.45520276,-0.088158846,0.62022907,0.101607576,0.0,0.0,0,-0.523004
-0.5540658,1.8880053,-0.4552009,-0.09248061,0.6253094,0.10160736,0.0,0.0,0,-0.518817
-0.55857617,1.8858726,-0.45519906,-0.09680236,0.63038975,0.10160719,0.0,0.0,0,-0.514579
-0.5630866,1.8836427,-0.4551972,-0.101124115,0.6354701,0.10160701,0.0,0.0,0,-0.510388
-0.56759727,1.8813162,-0.45519528,-0.105445854,0.64055043,0.10160681,0.0,0.0,0,-0.506203
-0.572108,1.8788929,-0.45519337,-0.10976759,0.6456308,0.10160662,0.0,0.0,0,-0.501987
-0.5766189,1.8763726,-0.45519143,-0.11408933,0.6507111,0.10160644,0.0,0.0,0,-0.497772
-0.5811299,1.8737553,-0.45518947,-0.11841106,0.65579146,0.101606265,0.0,0.0,0,-0.493547
-0.5856411,1.871041,-0.45518747,-0.12273277,0.66087174,0.10160609,0.0,0.0,0,-0.489331
-0.5901524,1.8682299,-0.45518547,-0.1270545,0.665952,0.10160593,0.0,0.0,0,-0.485114
-0.5946638,1.8653216,-0.45518345,-0.13137619,0.6710323,0.10160576,0.0,0.0,0,-0.480896
-0.59917533,1.8623164,-0.45518145,-0.13569787,0.6761126,0.10160558,0.0,0.0,0,-0.476702
-0.6036871,1.8592144,-0.4551794,-0.14001957,0.6811929,0.101605415,0.0,0.0,0,-0.472482
-0.60819894,1.8560156,-0.45517737,-0.14434123,0.68627316,0.1016052,0.0,0.0,0,-0.468284
-0.61271095,1.8527199,-0.4551753,-0.14866291,0.6913534,0.10160501,0.0,0.0,0,-0.464036
-0.617223,1.8493271,-0.45517325,-0.15298459,0.6964336,0.10160484,0.0,0.0,0,-0.459838
-0.62173533,1.8458375,-0.45517117,-0.15730624,0.7015138,0.10160466,0.0,0.0,0,-0.455613
-0.62624776,1.8422508,-0.45516902,-0.16162792,0.70659405,0.10160448,0.0,0.0,0,-0.451369
-0.6307604,1.838567,-0.4551669,-0.16594955,0.7116743,0.10160428,0.0,0.0,0,-0.447186
-0.6352731,1.8347864,-0.45516485,-0.17027119,0.71675456,0.10160409,0.0,0.0,0,-0.442955
-0.639786,1.8309089,-0.45516276,-0.17459281,0.7218348,0.10160388,0.0,0.0,0,-0.438752
-0.64429903,1.8269347,-0.45516062,-0.17891444,0.72691494,0.101603724,0.0,0.0,0,-0.434509
-0.64881223,1.8228631,-0.45515847,-0.18323606,0.7319951,0.101603545,0.0,0.0,0,-0.430320
-0.65332556,1.818695,-0.45515633,-0.18755768,0.73707527,0.1016034,0.0,0.0,0,-0.426103
-0.65783906,1.8144298,-0.45515412,-0.19187929,0.74215543,0.10160321,0.0,0.0,0,-0.421893
-0.6623527,1.8100675,-0.45515195,-0.19620089,0.7472356,0.101603046,0.0,0.0,0,-0.417684
-0.66686654,1.8056083,-0.4551497,-0.20052248,0.75231576,0.1016029,0.0,0.0,0,-0.413485
-0.6713805,1.8010521,-0.4551475,-0.20484407,0.7573959,0.10160271,0.0,0.0,0,-0.409284
-0.6758946,1.796399,-0.4551453,-0.20916565,0.762476,0.10160253,0.0,0.0,0,-0.405100
-0.6804089,1.791649,-0.45514306,-0.2134872,0.76755613,0.10160234,0.0,0.0,0,-0.400927
-0.68492335,1.786802,-0.45514077,-0.21780875,0.77263623,0.10160215,0.0,0.0,0,-0.396741
-0.689438,1.7818581,-0.45513853,-0.22213033,0.77771634,0.10160198,0.0,0.0,0,-0.392582
-0.69395274,1.7768173,-0.45513624,-0.22645189,0.78279644,0.10160182,0.0,0.0,0,-0.388422
-0.6984676,1.7716794,-0.45513397,-0.23077343,0.78787655,0.10160164,0.0,0.0,0,-0.384263
-0.7029827,1.7664447,-0.45513162,-0.23509496,0.7929566,0.10160146,0.0,0.0,0,-0.380143
-0.70749795,1.7611129,-0.45512933,-0.2394165,0.79803663,0.10160128,0.0,0.0,0,-0.375999
-0.71201336,1.7556841,-0.455127,-0.24373798,0.8031167,0.10160109,0.0,0.0,0,-0.371905
-0.71652895,1.7501585,-0.4551247,-0.2480595,0.8081967,0.10160092,0.0,0.0,0,-0.367803
-0.72104466,1.7445359,-0.45512238,-0.252381,0.81327677,0.101600744,0.0,0.0,0,-0.363717
-0.7255606,1.7388163,-0.45512,-0.25670248,0.8183568,0.101600565,0.0,0.0,0,-0.359655
-0.7300767,1.7329997,-0.45511764,-0.26102394,0.82343686,0.10160039,0.0,0.0,0,-0.355616
-0.7345929,1.7270863,-0.45511532,-0.26534542,0.82851684,0.10160021,0.0,0.0,0,-0.351588
-0.73910934,1.7210758,-0.455113,-0.26966685,0.8335968,0.10160001,0.0,0.0,0,-0.347564
-0.7436259,1.7149682,-0.4551106,-0.2739883,0.8386768,0.10159986,0.0,0.0,0,-0.343587
-0.74814266,1.7087638,-0.45510817,-0.27830973,0.8437568,0.101599656,0.0,0.0,0,-0.339626
-0.75265956,1.7024624,-0.45510572,-0.28263113,0.8488368,0.1015995,0.0,0.0,0,-0.335692
-0.75717664,1.696064,-0.4551033,-0.28695256,0.85391676,0.1015993,0.0,0.0,0,-0.331796
-0.76169395,1.6895688,-0.45510086,-0.29127398,0.85899675,0.10159911,0.0,0.0,0,-0.327892
-0.7662114,1.6829765,-0.4550984,-0.29559538,0.8640767,0.1015989,0.0,0.0,0,-0.324055
-0.770729,1.6762872,-0.45509592,-0.2999168,0.8691566,0.10159874,0.0,0.0,0,-0.320221
-0.7752468,1.6695008,-0.45509344,-0.3042382,0.8742365,0.10159856,0.0,0.0,0,-0.316448
-0.7797648,1.6626177,-0.45509094,-0.30855957,0.87931645,0.10159842,0.0,0.0,0,-0.312683
-0.7842829,1.6556374,-0.45508847,-0.31288093,0.8843964,0.101598226,0.0,0.0,0,-0.308969
-0.7888012,1.64856,-0.455086,-0.31720227,0.8894763,0.10159806,0.0,0.0,0,-0.305297
-0.7933197,1.6413859,-0.45508346,-0.32152364,0.89455616,0.10159789,0.0,0.0,0,-0.301663
-0.79783845,1.6341147,-0.45508093,-0.32584497,0.89963603,0.10159769,0.0,0.0,0,-0.298071
-0.8023573,1.6267467,-0.45507842,-0.33016634,0.9047159,0.101597525,0.0,0.0,0,-0.294522
-0.80687636,1.6192815,-0.4550759,-0.33448765,0.90979576,0.10159733,0.0,0.0,0,-0.291015
-0.8113956,1.6117194,-0.4550733,-0.33880895,0.9148756,0.10159715,0.0,0.0,0,-0.287556
-0.815915,1.6040602,-0.4550708,-0.34313026,0.9199555,0.101596996,0.0,0.0,0,-0.284162
-0.8204346,1.596304,-0.4550682,-0.34745157,0.92503536,0.10159681,0.0,0.0,0,-0.280811
-0.8249544,1.5884509,-0.45506564,-0.35177287,0.93011516,0.10159665,0.0,0.0,0,-0.277501
-0.82947433,1.5805007,-0.45506305,-0.35609415,0.93519497,0.10159646,0.0,0.0,0,-0.274277
-0.83399445,1.5724537,-0.45506042,-0.36041543,0.9402748,0.101596296,0.0,0.0,0,-0.271103
-0.8385148,1.5643096,-0.4550578,-0.3647367,0.9453546,0.101596154,0.0,0.0,0,-0.267974
-0.84303534,1.5560684,-0.45505518,-0.36905795,0.9504344,0.10159594,0.0,0.0,0,-0.264943
-0.84755605,1.5477304,-0.45505255,-0.3733792,0.9555142,0.101595774,0.0,0.0,0,-0.261956
-0.85207695,1.5392954,-0.4550499,-0.3777004,0.960594,0.10159558,0.0,0.0,0,-0.259030
-0.856598,1.5307633,-0.45504722,-0.3820216,0.96567374,0.10159539,0.0,0.0,0,-0.256195
-0.8611193,1.5221342,-0.45504457,-0.38634285,0.9707535,0.10159522,0.0,0.0,0,-0.253433
-0.8656407,1.5134081,-0.4550419,-0.39066404,0.97583324,0.10159506,0.0,0.0,0,-0.250751
-0.87016237,1.5045849,-0.45503917,-0.39498526,0.980913,0.101594865,0.0,0.0,0,-0.248149
-0.8746842,1.4956648,-0.4550365,-0.39930642,0.9859927,0.1015947,0.0,0.0,0,-0.245636
-0.87920624,1.4866477,-0.45503384,-0.4036276,0.9910725,0.10159453,0.0,0.0,0,-0.243194
-0.88372844,1.4775336,-0.45503116,-0.4079488,0.9961522,0.101594344,0.0,0.0,0,-0.240860
-0.8882509,1.4683225,-0.45502844,-0.41226995,1.0012319,0.10159419,0.0,0.0,0,-0.238609
-0.8927735,1.4590143,-0.45502573,-0.4165911,1.0063117,0.10159403,0.0,0.0,0,-0.236456
-0.89729625,1.449609,-0.45502296,-0.42091224,1.0113914,0.10159387,0.0,0.0,0,-0.234402
-0.9018193,1.4401069,-0.45502025,-0.42523336,1.016471,0.10159372,0.0,0.0,0,-0.232447
-0.90634245,1.4305077,-0.4550175,-0.4295545,1.0215507,0.101593554,0.0,0.0,0,-0.230605
-0.91086584,1.4208113,-0.45501477,-0.4338756,1.0266303,0.10159336,0.0,0.0,0,-0.228882
-0.9153894,1.411018,-0.455012,-0.43819672,1.0317099,0.101593174,0.0,0.0,0,-0.227269
-0.9199132,1.4011278,-0.45500922,-0.44251782,1.0367895,0.101593,0.0,0.0,0,-0.225764
-0.92443717,1.3911403,-0.45500645,-0.44683892,1.0418692,0.10159285,0.0,0.0,0,-0.224402
-0.92896134,1.3810561,-0.45500368,-0.45115998,1.0469488,0.101592705,0.0,0.0,0,-0.223142
-0.9334857,1.3708748,-0.45500088,-0.45548105,1.0520284,0.10159252,0.0,0.0,0,-0.222016
-0.9380103,1.3605962,-0.45499808,-0.45980215,1.057108,0.1015923,0.0,0.0,0,-0.221041
-0.94253504,1.3502209,-0.45499524,-0.4641232,1.0621877,0.10159212,0.0,0.0,0,-0.220181
-0.94706,1.3397484,-0.45499238,-0.46844423,1.0672673,0.101591945,0.0,0.0,0,-0.219465
-0.9515852,1.3291788,-0.45498952,-0.47276524,1.0723469,0.10159175,0.0,0.0,0,-0.218921
-0.95611054,1.3185123,-0.45498666,-0.47708622,1.0774266,0.1015916,0.0,0.0,0,-0.218509
-0.96063614,1.3077487,-0.45498386,-0.48140725,1.0825062,0.10159142,0.0,0.0,0,-0.218247
-0.9651619,1.2968881,-0.45498103,-0.4857283,1.0875857,0.10159127,0.0,0.0,0,-0.218138
-0.9696879,1.2859304,-0.45497817,-0.49004927,1.0926652,0.10159109,0.0,0.0,0,-0.218214
-0.9742141,1.2748756,-0.4549753,-0.49437028,1.0977447,0.10159092,0.0,0.0,0,-0.218452
-0.97874045,1.263724,-0.45497242,-0.49869123,1.1028242,0.101590715,0.0,0.0,0,-0.218859
-0.983267,1.2524751,-0.4549695,-0.50301224,1.1079037,0.10159053,0.0,0.0,0,-0.219442
-0.9877938,1.2411292,-0.4549666,-0.50733316,1.1129832,0.101590335,0.0,0.0,0,-0.220235
-0.99232084,1.2296864,-0.45496368,-0.5116541,1.1180627,0.10159018,0.0,0.0,0,-0.221192
-0.99684805,1.2181464,-0.45496076,-0.515975,1.1231422,0.10158998,0.0,0.0,0,-100
-0.00058918,1.401191,-0.05968871,-0.4324007,0.00068945537,0.013520397,0.0,0.0,0,0.589187
-0.0011784553,1.3913882,-0.0596079,-0.43568498,0.0013573951,0.013360845,0.0,0.0,0,0.491748
-0.001767826,1.3814873,-0.059609927,-0.44003955,0.0020250918,0.013355272,0.0,0.0,0,0.504246
-0.0023571968,1.371489,-0.05961188,-0.44436535,0.0026927236,0.013353907,0.0,0.0,0,0.514232
-0.0029465675,1.3613936,-0.059613854,-0.4486875,0.003360253,0.013351788,0.0,0.0,0,0.523927
-0.0035359382,1.351201,-0.05961583,-0.45300895,0.0040276707,0.01334971,0.0,0.0,0,0.533563
-0.004125309,1.3409111,-0.0596178,-0.45733058,0.0046949834,0.013347539,0.0,0.0,0,0.543193
-0.004714775,1.3305238,-0.059619773,-0.4616523,0.0053622136,0.01334581,0.0,0.0,0,0.552809
-0.0053043365,1.3200396,-0.05962172,-0.465974,0.006029356,0.013343817,0.0,0.0,0,0.562462
-0.0058938027,1.309458,-0.05962367,-0.4702958,0.006696388,0.013341959,0.0,0.0,0,0.572089
-0.006483269,1.2987792,-0.059625614,-0.47461757,0.007363321,0.013339961,0.0,0.0,0,0.581747
-0.0070727346,1.2880031,-0.05962755,-0.4789394,0.008030133,0.013337809,0.0,0.0,0,0.591353
-0.0076622963,1.2771299,-0.05962949,-0.4832613,0.008696903,0.013336368,0.0,0.0,0,0.601015
-0.008251858,1.2661593,-0.0596314,-0.4875832,0.009363563,0.0133343395,0.0,0.0,0,0.610639
-0.008841515,1.2550915,-0.059633326,-0.49190515,0.01003014,0.013332574,0.0,0.0,0,0.620284
-0.009431076,1.2439265,-0.059635233,-0.49622715,0.010696617,0.013330837,0.0,0.0,0,0.629926
-0.010020638,1.2326643,-0.059637137,-0.5005492,0.0113629885,0.01332863,0.0,0.0,0,0.639583
-0.0106102945,1.2213048,-0.059639048,-0.50487113,0.012029264,0.013326543,0.0,0.0,2,4.787297
-0.011100101,1.2108635,-0.05016188,-0.46407002,0.013201057,0.023438048,0.0,0.0,2,3.995530
-0.011697292,1.2012222,-0.06043879,-0.42850563,0.01390713,0.014122866,0.0,0.0,2,6.727154
-0.012173558,1.192985,-0.048977077,-0.36611006,0.015243016,0.026720092,0.0,0.0,0,0.270118
-0.012649822,1.1846504,-0.048981067,-0.3704404,0.016577952,0.02670134,0.0,0.0,0,0.280999
-0.013126087,1.1762189,-0.048984822,-0.37475762,0.017912958,0.026702508,0.0,0.0,0,0.290211
-0.013602448,1.1676899,-0.048988603,-0.37907925,0.019247772,0.02669861,0.0,0.0,0,0.299765
-0.014078903,1.1590638,-0.04899236,-0.3834016,0.02058238,0.02669469,0.0,0.0,2,3.651026
-0.014391613,1.1511631,-0.033448678,-0.35117212,0.022726024,0.042872988,0.0,0.0,2,5.189264
-0.0148983,1.1444415,-0.0520221,-0.29875156,0.024062322,0.026726112,0.0,0.0,0,0.121791
-0.015404987,1.137623,-0.05202209,-0.3030717,0.025398629,0.026726106,0.0,0.0,0,0.131311
-0.015911674,1.1307071,-0.05202208,-0.30739185,0.026734943,0.026726108,0.0,0.0,0,0.140825
-0.016418362,1.1236942,-0.052022077,-0.311712,0.028071247,0.026726088,0.0,0.0,0,0.150358
-0.016925145,1.1165841,-0.05202207,-0.31603214,0.029407559,0.026726043,0.0,0.0,0,0.159887
-0.017431831,1.1093767,-0.052022062,-0.32035226,0.030743858,0.026726002,0.0,0.0,0,0.169430
-0.017938519,1.102072,-0.05202206,-0.32467237,0.032080155,0.026726052,0.0,0.0,0,0.178948
-0.018445205,1.0946704,-0.05202205,-0.3289925,0.033416476,0.026726028,0.0,0.0,0,0.188497
-0.018951893,1.0871716,-0.05202204,-0.33331266,0.034752775,0.026725974,0.0,0.0,0,0.198046
-0.01945858,1.0795755,-0.052022032,-0.33763278,0.03608907,0.026725981,0.0,0.0,0,0.207601
-0.019965267,1.0718822,-0.05202203,-0.34195292,0.03742539,0.026725953,0.0,0.0,0,0.217157
-0.020471955,1.0640918,-0.052022018,-0.34627303,0.038761683,0.026725957,0.0,0.0,0,0.226709
-0.020978738,1.0562043,-0.052022003,-0.35059315,0.04009798,0.026725953,0.0,0.0,0,0.236263
-0.021485424,1.0482196,-0.05202199,-0.3549133,0.041434277,0.026725968,0.0,0.0,0,0.245835
-0.021992112,1.0401376,-0.05202198,-0.35923344,0.04277058,0.026725974,0.0,0.0,0,0.255397
-0.022498798,1.0319586,-0.05202197,-0.36355358,0.04410688,0.026725963,0.0,0.0,0,0.264977
-0.023005486,1.0236821,-0.05202196,-0.3678737,0.045443177,0.026725937,0.0,0.0,0,0.274528
-0.023512268,1.0153089,-0.052021958,-0.3721938,0.046779472,0.026725939,0.0,0.0,0,0.284106
-0.024018954,1.0068382,-0.05202195,-0.37651396,0.04811577,0.026725937,0.0,0.0,0,0.293676
-0.024525642,0.99827045,-0.052021943,-0.3808341,0.049452055,0.026725898,0.0,0.0,0,0.303261
-0.02503233,0.98960537,-0.05202193,-0.38515422,0.05078836,0.026725868,0.0,0.0,0,0.312830
-0.025539016,0.98084325,-0.052021913,-0.38947436,0.052124653,0.026725879,0.0,0.0,0,0.322419
-0.0260458,0.9719838,-0.052021902,-0.39379448,0.05346094,0.02672587,0.0,0.0,0,0.331970
-0.026552487,0.96302736,-0.05202189,-0.39811465,0.054797232,0.026725864,0.0,0.0,0,0.341561
-0.027059173,0.95397365,-0.05202188,-0.4024348,0.056133512,0.026725858,0.0,0.0,0,0.351134
-0.027565861,0.9448228,-0.05202187,-0.4067549,0.05746982,0.026725858,0.0,0.0,0,0.360721
-0.028072644,0.9355747,-0.052021854,-0.41107503,0.058806114,0.02672587,0.0,0.0,0,0.370277
-0.02857933,0.9262296,-0.052021842,-0.41539517,0.0601424,0.026725862,0.0,0.0,0,0.379865
-0.029086018,0.9167872,-0.05202183,-0.4197153,0.061478697,0.02672587,0.0,0.0,0,0.389431
-0.0295928,0.9072477,-0.052021813,-0.42403543,0.062815,0.026725877,0.0,0.0,0,0.399019
-0.030099487,0.8976109,-0.0520218,-0.42835554,0.0641513,0.026725885,0.0,0.0,0,0.408584
-0.030606175,0.887877,-0.052021783,-0.4326757,0.06548759,0.0267259,0.0,0.0,0,0.418150
-0.031112958,0.878046,-0.05202177,-0.43699583,0.066823885,0.026725892,0.0,0.0,0,0.427732
-0.031619646,0.86811763,-0.05202176,-0.44131595,0.06816018,0.026725877,0.0,0.0,0,0.437276
-0.03212633,0.8580923,-0.05202175,-0.4456361,0.069496475,0.026725862,0.0,0.0,0,0.446850
-0.032633115,0.8479697,-0.05202173,-0.44995624,0.07083277,0.026725838,0.0,0.0,2,3.898957
-0.033189394,0.8386318,-0.056942157,-0.41508558,0.072132766,0.025999967,0.0,0.0,2,3.798897
-0.033677675,0.83005255,-0.050650477,-0.3813842,0.0739368,0.03608044,0.0,0.0,0,0.256189
-0.034165956,0.82137626,-0.050650448,-0.38570446,0.07574081,0.036080413,0.0,0.0,0,0.265727
-0.034654237,0.81260276,-0.050650418,-0.3900247,0.07754482,0.03608041,0.0,0.0,0,0.275259
-0.03514252,0.80373216,-0.05065038,-0.39434496,0.07934883,0.03608039,0.0,0.0,2,3.057458
-0.035582542,0.79547423,-0.04622731,-0.3671416,0.081548706,0.043997586,0.0,0.0,2,5.797374
-0.036030866,0.78850466,-0.047365054,-0.3099003,0.084058575,0.050197434,0.0,0.0,2,3.401653
-0.03647194,0.7822997,-0.04690292,-0.2759365,0.086824805,0.055324607,0.0,0.0,0,-0.075227
-0.036913108,0.7759976,-0.046902843,-0.2802571,0.089591056,0.055325054,0.0,0.0,0,-0.065773
-0.037354182,0.7695983,-0.046902757,-0.2845777,0.0923573,0.055325,0.0,0.0,0,-0.056336
-0.037795257,0.76310205,-0.04690267,-0.28889832,0.09512357,0.055324964,0.0,0.0,0,-0.046872
-0.038236428,0.7565087,-0.046902582,-0.29321894,0.097889796,0.055324912,0.0,0.0,0,-0.037409
-0.038677596,0.7498182,-0.04690249,-0.29753956,0.10065604,0.055324845,0.0,0.0,0,-0.027942
-0.03911867,0.74303055,-0.046902396,-0.30186018,0.10342229,0.055324834,0.0,0.0,0,-0.018486
-0.03955984,0.7361459,-0.0469023,-0.3061808,0.106188536,0.055324823,0.0,0.0,0,-0.009015
-0.040001012,0.7291642,-0.046902202,-0.31050143,0.10895478,0.05532477,0.0,0.0,0,0.000460
-0.04044218,0.7220853,-0.046902098,-0.31482205,0.111721,0.055324715,0.0,0.0,0,0.009932
-0.04088335,0.71490926,-0.04690199,-0.31914267,0.11448724,0.055324662,0.0,0.0,0,0.019395
-0.04132452,0.7076363,-0.04690188,-0.32346326,0.11725346,0.055324614,0.0,0.0,0,0.028864
-0.04176569,0.7002661,-0.04690177,-0.32778388,0.1200197,0.055324614,0.0,0.0,0,0.038354
-0.04220686,0.69279873,-0.04690166,-0.33210447,0.122785926,0.055324562,0.0,0.0,0,0.047788
-0.042648125,0.6852345,-0.046901543,-0.33642513,0.12555216,0.055324543,0.0,0.0,2,3.897106
-0.043210696,0.6785814,-0.058869522,-0.2959146,0.12815078,0.05197229,0.0,0.0,0,-0.013713
-0.04377327,0.67183113,-0.058869414,-0.30023518,0.13074939,0.051972307,0.0,0.0,0,-0.004422
-0.04433594,0.664984,-0.05886931,-0.30455574,0.133348,0.05197227,0.0,0.0,0,0.004912
-0.04489851,0.65803957,-0.0588692,-0.3088763,0.13594662,0.05197226,0.0,0.0,0,0.014235
-0.045461178,0.65099806,-0.058869082,-0.3131968,0.13854522,0.051972248,0.0,0.0,0,0.023552
-0.04602375,0.6438593,-0.058868967,-0.31751734,0.14114384,0.051972233,0.0,0.0,0,0.032870
-0.046586417,0.63662356,-0.058868844,-0.32183787,0.14374246,0.05197219,0.0,0.0,0,0.042171
-0.047149085,0.62929076,-0.058868717,-0.3261584,0.14634107,0.05197216,0.0,0.0,0,0.051483
-0.047711752,0.6218608,-0.0588686,-0.33047894,0.14893968,0.051972114,0.0,0.0,0,0.060793
-0.04827442,0.61433375,-0.058868475,-0.33479944,0.15153828,0.051972054,0.0,0.0,0,0.070092
-0.048837088,0.60670954,-0.05886835,-0.33912,0.15413688,0.05197204,0.0,0.0,0,0.079389
-0.049399756,0.59898823,-0.05886822,-0.34344053,0.1567355,0.051972024,0.0,0.0,0,0.088667
-0.04996252,0.59116983,-0.058868088,-0.3477611,0.1593341,0.051972013,0.0,0.0,0,0.097949
-0.05052519,0.5832543,-0.05886795,-0.35208163,0.1619327,0.051972024,0.0,0.0,0,0.107208
-0.051087953,0.57524174,-0.058867812,-0.3564022,0.1645313,0.05197201,0.0,0.0,2,5.047489
-0.05196972,0.56851214,-0.0900207,-0.299295,0.16637084,0.03679056,0.0,0.0,2,4.905263
-0.052999306,0.56306666,-0.10483028,-0.24223326,0.1682415,0.03741338,0.0,0.0,2,4.319088
-0.05418787,0.55893666,-0.120729804,-0.18376537,0.17011678,0.037506007,0.0,0.0,0,-0.140822
-0.055376433,0.5547096,-0.12072973,-0.18808566,0.17199208,0.037506007,0.0,0.0,0,-0.134056
-0.056564905,0.55038536,-0.12072965,-0.19240595,0.17386739,0.0375061,0.0,0.0,0,-0.127190
-0.057753466,0.54596394,-0.120729566,-0.19672625,0.1757427,0.03750611,0.0,0.0,0,-0.120242
-0.05894203,0.5414454,-0.12072948,-0.20104654,0.17761801,0.037506085,0.0,0.0,0,-0.113209
-0.060130596,0.5368297,-0.1207294,-0.20536683,0.17949331,0.037506055,0.0,0.0,2,2.446596
-0.061360933,0.53297806,-0.12519003,-0.17144567,0.18165259,0.04318585,0.0,0.0,0,-0.188392
-0.06259136,0.52902925,-0.12518993,-0.17576604,0.18381187,0.04318585,0.0,0.0,0,-0.182203
-0.063821696,0.5249834,-0.12518984,-0.18008642,0.18597116,0.043185823,0.0,0.0,0,-0.175887
-0.06505213,0.52084035,-0.12518974,-0.18440682,0.18813045,0.043185778,0.0,0.0,0,-0.169465
-0.066282555,0.5166002,-0.12518963,-0.18872719,0.19028974,0.04318575,0.0,0.0,0,-0.162951
-0.06751289,0.5122629,-0.12518953,-0.19304758,0.19244902,0.043185722,0.0,0.0,3,0.518759
-0.06867409,0.50784266,-0.11649682,-0.196501,0.19283707,0.007760685,0.0,0.0,3,0.652838
-0.069774434,0.5033533,-0.10881714,-0.19937213,0.19161057,-0.024530396,0.0,0.0,3,0.842801
-0.07080555,0.49879012,-0.10009376,-0.20242064,0.18857749,-0.06066177,0.0,0.0,0,0.361831
-0.071836755,0.49412987,-0.10009354,-0.2067414,0.18554442,-0.06066175,0.0,0.0,0,0.369315
-0.07286797,0.48937255,-0.10009333,-0.21106216,0.18251134,-0.060661726,0.0,0.0,0,0.376850
-0.07389917,0.4845181,-0.10009313,-0.21538292,0.17947827,-0.060661666,0.0,0.0,0,0.384418
-0.074930385,0.4795666,-0.100092925,-0.21970367,0.1764452,-0.060661625,0.0,0.0,0,0.392020
-0.07596149,0.47451806,-0.10009273,-0.22402443,0.17341211,-0.060661577,0.0,0.0,0,0.399643
-0.07699261,0.46937242,-0.100092515,-0.22834519,0.17037904,-0.060661566,0.0,0.0,0,0.407292
-0.07802381,0.4641297,-0.100092314,-0.23266596,0.16734597,-0.060661532,0.0,0.0,0,0.414951
-0.079055026,0.45878986,-0.10009211,-0.23698671,0.16431288,-0.060661476,0.0,0.0,0,0.422615
-0.08008623,0.453353,-0.100091934,-0.24130748,0.1612798,-0.060661424,0.0,0.0,0,0.430288
-0.08111744,0.447819,-0.10009174,-0.24562825,0.15824671,-0.060661364,0.0,0.0,0,0.437947
-0.08214865,0.4421879,-0.10009154,-0.24994901,0.15521364,-0.06066134,0.0,0.0,0,0.445589
-0.083179854,0.43645987,-0.10009136,-0.25426978,0.15218055,-0.060661294,0.0,0.0,0,0.453227
-0.084211156,0.43063462,-0.1000912,-0.25859055,0.1491475,-0.060661238,0.0,0.0,0,0.460832
-0.085242465,0.4247123,-0.10009102,-0.2629113,0.14611444,-0.060661178,0.0,0.0,3,1.164491
-0.08617668,0.4187057,-0.08791953,-0.2664316,0.14062594,-0.10976998,0.0,0.0,3,1.146421
-0.087048054,0.41261446,-0.080025405,-0.2700673,0.13353589,-0.14180094,0.0,0.0,3,1.284137
-0.087855145,0.4064362,-0.071966216,-0.27382517,0.12481799,-0.1743581,0.0,0.0,0,1.048860
-0.08866243,0.40016186,-0.07196499,-0.27815145,0.11610012,-0.17435718,0.0,0.0,0,1.056705
-0.089469716,0.3937912,-0.07196383,-0.28247777,0.10738229,-0.17435625,0.0,0.0,0,1.064468
-0.0902771,0.38732445,-0.07196277,-0.28680408,0.09866452,-0.17435536,0.0,0.0,0,1.072166
-0.09108458,0.38076138,-0.07196178,-0.29113042,0.08994679,-0.17435446,0.0,0.0,0,1.079760
-0.091892146,0.3741023,-0.07196088,-0.29545677,0.08122911,-0.17435355,0.0,0.0,0,1.087275
-0.09269981,0.367347,-0.07196006,-0.29978308,0.07251148,-0.17435265,0.0,0.0,3,1.523598
-0.09343729,0.36051401,-0.06312317,-0.30320632,0.06200419,-0.21014607,0.0,0.0,3,1.728560
-0.094088174,0.35359734,-0.05225103,-0.30692482,0.04930971,-0.25388962,0.0,0.0,3,1.811496
-0.094680116,0.34660184,-0.04483442,-0.3104975,0.035117894,-0.2838363,0.0,0.0,3,1.999225
-0.09519243,0.33952132,-0.034831863,-0.31438845,0.018918643,-0.32398516,0.0,0.0,3,2.109895
-0.0956234,0.33234087,-0.024616856,-0.31899646,0.0006764356,-0.36484408,0.0,0.0,0,-1.436226
-0.09605436,0.32506773,-0.02461643,-0.3233443,-0.017565347,-0.3648357,0.0,0.0,0,-1.564443
-0.096485235,0.31770182,-0.024616767,-0.32769215,-0.035806727,-0.36482736,0.0,0.0,0,-1.557534
-0.096916005,0.31024304,-0.024617868,-0.33203998,-0.05404768,-0.364819,0.0,0.0,0,-1.550838
-0.09734659,0.30269158,-0.024619732,-0.33638784,-0.072288215,-0.36481068,0.0,0.0,0,-1.544346
-0.09777708,0.29504737,-0.024622357,-0.34073564,-0.090528324,-0.3648023,0.0,0.0,0,-1.538090
-0.098207094,0.28731036,-0.024625741,-0.34508342,-0.10876802,-0.36479396,0.0,0.0,0,-1.532104
-0.09863701,0.27948055,-0.024629885,-0.34943113,-0.12700729,-0.36478558,0.0,0.0,2,4.512653
-0.09907274,0.2730348,-0.024663858,-0.28819507,-0.14585236,-0.3769012,0.0,0.0,2,1.692084
-0.099378586,0.2673255,-0.01194917,-0.25567856,-0.16447623,-0.3724775,0.0,0.0,2,3.462868
-0.09944658,0.26278132,0.011341586,-0.20406984,-0.18265128,-0.36350125,0.0,0.0,0,-1.820715
-0.09951391,0.25814426,0.011334431,-0.2084171,-0.20082594,-0.36349297,0.0,0.0,0,-1.813109
-0.09958067,0.25341433,0.011326535,-0.21276428,-0.21900018,-0.36348468,0.0,0.0,0,-1.805614
-0.09964685,0.2485915,0.011317896,-0.21711135,-0.23717399,-0.36347643,0.0,0.0,2,0.280615
-0.09968682,0.24423502,0.014145938,-0.19665164,-0.25563785,-0.36927727,0.0,0.0,2,1.033556
-0.0995451,0.24057384,0.0320378,-0.16593146,-0.27390623,-0.36536774,0.0,0.0,2,2.001955
-0.09906292,0.23810764,0.065560415,-0.11296294,-0.29173613,-0.35659742,0.0,0.0,0,-1.905216
-0.09857998,0.23554817,0.06554928,-0.11730853,-0.3095656,-0.35658962,0.0,0.0,0,-1.900010
-0.09809618,0.23289557,0.06553745,-0.121654,-0.3273947,-0.3565818,0.0,0.0,0,-1.894547
-0.09761133,0.23014978,0.06552494,-0.1259993,-0.3452234,-0.356574,0.0,0.0,0,-1.888885
-0.097125724,0.22731079,0.06551177,-0.13034447,-0.3630517,-0.3565662,0.0,0.0,0,-1.883008
-0.09663896,0.22437845,0.06549792,-0.13468948,-0.38087964,-0.35655838,0.0,0.0,0,-1.876997
-0.096151255,0.221353,0.065483406,-0.1390343,-0.39870718,-0.35655057,0.0,0.0,0,-1.870808
-0.09566231,0.21823412,0.06546824,-0.14337896,-0.4165343,-0.35654274,0.0,0.0,0,-1.864520
-0.09517231,0.21502191,0.06545241,-0.14772344,-0.43436104,-0.3565349,0.0,0.0,1,-1.209494
-0.09474011,0.21175991,0.057944655,-0.14962035,-0.4504373,-0.32152507,0.0,0.0,1,-0.880098
-0.094377995,0.20846608,0.04881532,-0.15051807,-0.46430343,-0.2773222,0.0,0.0,1,-0.894543
-0.09407501,0.20511869,0.04122296,-0.1524729,-0.47640935,-0.2421176,0.0,0.0,0,-1.303554
-0.093771555,0.2016758,0.04121461,-0.15680386,-0.48851514,-0.24211517,0.0,0.0,0,-1.296239
-0.09346733,0.19813743,0.041206066,-0.16113475,-0.5006208,-0.24211273,0.0,0.0,0,-1.288983
-0.09316263,0.19450358,0.04119732,-0.16546558,-0.5127263,-0.2421103,0.0,0.0,0,-1.281772
-0.092857264,0.19077423,0.041188378,-0.1697963,-0.5248317,-0.24210787,0.0,0.0,0,-1.274629
-0.092551135,0.18694933,0.041179247,-0.174127,-0.536937,-0.24210544,0.0,0.0,1,-0.580172
-0.0923173,0.1830848,0.03198552,-0.1752016,-0.5468329,-0.19791701,0.0,0.0,1,-0.282095
-0.09216633,0.17919303,0.021411218,-0.1755476,-0.5541392,-0.1461262,0.0,0.0,1,-0.139671
-0.092086695,0.17527193,0.012246901,-0.17604914,-0.55912566,-0.099729136,0.0,0.0,0,-0.571234
-0.09200706,0.17125398,0.012245248,-0.18037091,-0.5641121,-0.09972898,0.0,0.0,0,-0.564498
-0.091927245,0.16713904,0.012243583,-0.18469268,-0.5690986,-0.09972879,0.0,0.0,0,-0.558003
-0.091847226,0.16292718,0.012241906,-0.18901445,-0.574085,-0.09972863,0.0,0.0,1,-0.105287
-0.091823295,0.15866591,0.0051449,-0.19057825,-0.57731277,-0.06455533,0.0,0.0,1,0.195526
-0.09186153,0.1543776,-0.0029272723,-0.19098338,-0.57837856,-0.021315824,0.0,0.0,1,0.242468
-0.09194918,0.150045,-0.009283154,-0.19233413,-0.5777652,0.012266165,0.0,0.0,0,0.001290
-0.092036724,0.1456152,-0.00928318,-0.19665416,-0.5771519,0.012266151,0.0,0.0,0,0.005944
-0.092124365,0.1410882,-0.009283206,-0.2009742,-0.57653856,0.012266152,0.0,0.0,1,0.619421
-0.09229155,0.13654512,-0.019498024,-0.20071289,-0.5732668,0.06543477,0.0,0.0,1,0.790549
-0.09253435,0.13198093,-0.02920889,-0.20074454,-0.56748253,0.11568491,0.0,0.0,1,0.768574
-0.092831805,0.12735981,-0.03610314,-0.20269765,-0.5600538,0.1485744,0.0,0.0,0,0.677751
-0.093128964,0.12264219,-0.036106855,-0.20702155,-0.5526251,0.14857385,0.0,0.0,0,0.678877
-0.09342585,0.11782788,-0.03611052,-0.2113455,-0.5451965,0.14857331,0.0,0.0,0,0.679161
-0.09372244,0.11291707,-0.036114138,-0.21566945,-0.5377678,0.14857273,0.0,0.0,2,4.913935
-0.0935009,0.108870946,0.0152131,-0.17708316,-0.5297999,0.15935943,0.0,0.0,2,2.803200
-0.09287367,0.10547448,0.055343915,-0.14809802,-0.5213767,0.16846354,0.0,0.0,0,0.739000
-0.09224615,0.1019816,0.055339433,-0.15242317,-0.5129536,0.16846274,0.0,0.0,0,0.742162
-0.091618255,0.09839231,0.055335023,-0.15674834,-0.50453043,0.16846192,0.0,0.0,0,0.744913
-0.09099016,0.09470674,0.05533067,-0.16107352,-0.4961074,0.16846108,0.0,0.0,0,0.747236
-0.09036179,0.09092475,0.05532639,-0.16539876,-0.4876844,0.16846023,0.0,0.0,0,0.749037
-0.08973303,0.08704635,0.055322178,-0.16972402,-0.47926143,0.1684594,0.0,0.0,0,0.750207
-0.08910398,0.0830716,0.055318028,-0.17404929,-0.4708385,0.16845857,0.0,0.0,0,0.750644
-0.08847465,0.0790005,0.055313945,-0.17837459,-0.4624156,0.16845772,0.0,0.0,0,0.750245
-0.08784504,0.07483314,0.05530993,-0.1826999,-0.45399272,0.16845688,0.0,0.0,0,0.748866
-0.08721514,0.07056936,0.05530598,-0.18702526,-0.44556993,0.16845608,0.0,0.0,0,0.746360
-0.086585045,0.06620916,0.055302102,-0.19135062,-0.4371472,0.16845524,0.0,0.0,0,0.742557
-0.085954666,0.06175269,0.055298287,-0.195676,-0.42872447,0.16845441,0.0,0.0,0,0.737254
-0.08532409,0.05719987,0.055294544,-0.20000139,-0.42030177,0.16845357,0.0,0.0,0,0.730246
-0.08469324,0.052550707,0.055290867,-0.20432681,-0.4118791,0.16845275,0.0,0.0,0,0.721281
-0.084062,0.047805272,0.055287253,-0.20865226,-0.4034565,0.16845194,0.0,0.0,2,3.834075
-0.08337154,0.043847118,0.061954487,-0.17391641,-0.39585248,0.15208016,0.0,0.0,2,3.473930
-0.082483575,0.04081186,0.08202511,-0.13303223,-0.38861862,0.14467688,0.0,0.0,0,16.677598
-0.08157463,0.03867589,0.06998731,-0.08940899,-0.36633533,0.44576144,1.0,0.0,0,6.465112
-0.080611035,0.0371863,0.06289245,-0.05803976,-0.33115113,0.70369554,1.0,0.0,0,3.270557
-0.07966919,0.035595212,0.06143623,-0.063573815,-0.2971334,0.68035513,1.0,0.0,0,-6.764097
-0.07872419,0.03392173,0.061389785,-0.067987196,-0.26311836,0.6803009,0.0,0.0,0,3.227270
-0.077776626,0.032165848,0.06134814,-0.07240156,-0.22910608,0.68024665,0.0,0.0,0,3.219182
-0.076826856,0.030327855,0.061311323,-0.07681681,-0.19509651,0.6801924,0.0,0.0,0,3.211508
-0.075875,0.028407607,0.06127938,-0.08123284,-0.16108964,0.68013823,0.0,0.0,0,3.204018
-0.074921705,0.026405463,0.061252356,-0.08564953,-0.12708549,0.680084,0.0,0.0,0,3.196617
-0.07396717,0.024321208,0.061230283,-0.09006677,-0.093084045,0.68002975,0.0,0.0,0,3.189123
-0.07301168,0.0221552,0.061213184,-0.09448444,-0.05908531,0.67997557,0.0,0.0,0,3.181389
-0.07205562,0.019907221,0.061201073,-0.09890244,-0.025089266,0.6799214,0.0,0.0,0,1.392442
-0.07109928,0.017577492,0.061193954,-0.103320666,0.008904045,0.6798672,0.0,0.0,0,-3.633578
-0.07014322,0.015165792,0.061191868,-0.10773898,0.042894665,0.679813,0.0,0.0,0,-3.642419
-0.06918745,0.012672267,0.061194785,-0.11215727,0.07688256,0.6797589,0.0,0.0,0,6.347857
-0.06823254,0.010096845,0.061202697,-0.116575435,0.11086774,0.6797048,0.0,1.0,0,0.134832
-0.06734419,0.00811312,0.07056297,-0.0899142,0.12803203,0.3419576,0.0,1.0,0,1.696824
-0.066578485,0.0067139007,0.077964164,-0.06207526,0.12661715,-0.028332192,0.0,1.0,0,3.124726
-0.06598492,0.005777595,0.078538485,-0.040096864,0.1075249,-0.38186756,0.0,1.0,0,3.548835
-0.06551476,0.0050400235,0.07648257,-0.03093306,0.07824638,-0.58563435,0.0,1.0,0,2.981609
-0.06505747,0.0042486284,0.07638244,-0.03386592,0.047890265,-0.60718393,0.0,1.0,0,2.640998
-0.06457987,0.0033417202,0.077270016,-0.0396242,0.018726123,-0.58330667,0.0,1.0,0,-9.335538
-0.0640955,0.002338252,0.077568434,-0.044486772,-0.01002704,-0.5750633,0.0,0.0,0,11.012807
-0.063521385,0.0019489026,0.06761123,-0.017405558,-0.020090124,-0.20125432,1.0,0.0,0,0.765658
-0.06287966,0.0018535948,0.06341454,-0.004223421,-0.019338526,0.015031742,1.0,0.0,0,0.196667
-0.06223469,0.0016831494,0.06313132,-0.0075610434,-0.017993923,0.0268921,1.0,0.0,0,0.238529
-0.061586667,0.001437316,0.062849015,-0.010902336,-0.016057512,0.03872821,1.0,0.0,0,0.280218
-0.060935307,0.0011161661,0.06256794,-0.014248748,-0.013530967,0.05053111,1.0,0.0,0,0.321666
-0.06028099,0.0007195568,0.06228856,-0.01760201,-0.010416579,0.062287737,1.0,0.0,0,0.362961
-0.05962343,0.00024734496,0.062011234,-0.020963766,-0.0067172213,0.07398699,1.0,0.0,0,0.404082
-0.058962632,-0.0003004694,0.061736327,-0.024335515,-0.0024363266,0.08561812,1.0,0.0,0,-0.039437
-0.058298778,-0.0009241724,0.061464213,-0.027718697,0.0024222182,0.09717067,1.0,0.0,0,11.265005
-0.05774517,-0.0009288931,0.05532946,-0.00021746398,0.002421082,-5.262001e-05,1.0,1.0,0,0.154500
-0.057201672,-0.0009244585,0.05432434,0.00019115774,0.002424788,4.61034e-05,1.0,1.0,0,0.141007
-0.05666704,-0.00092424394,0.053448014,4.051965e-06,0.0024259395,9.769951e-07,1.0,1.0,0,0.143985
-0.056141566,-0.0009241724,0.05253269,-1.2375205e-06,0.0024268231,-2.9666316e-07,1.0,1.0,0,0.143194
-0.05562534,-0.00092410087,0.051616173,-4.4021554e-08,0.0024275568,-8.810829e-09,1.0,1.0,0,0.142295
-0.055118274,-0.00092402933,0.050699603,8.198469e-09,0.0024281775,-1.2881393e-10,1.0,1.0,0,0.141375
-0.054620363,-0.00092395785,0.049783185,6.875956e-09,0.0024286907,2.8283825e-10,1.0,1.0,0,0.140468
-0.054131605,-0.0009238863,0.04886677,3.4196934e-09,0.0024291107,-4.9256017e-09,1.0,1.0,0,0.139560
-0.053652,-0.0009238863,0.04795036,1.5029102e-09,0.0024294534,-7.605979e-09,1.0,1.0,0,0.138640
-0.05318165,-0.0009238863,0.04703395,1.1798715e-09,0.0024297473,-8.136786e-09,1.0,1.0,0,0.137729
-0.05272045,-0.0009238863,0.046117548,8.232877e-10,0.002429991,-7.583683e-09,1.0,1.0,0,0.136818
-0.05226841,-0.0009238863,0.045201145,1.2525551e-09,0.0024301861,-6.721252e-09,1.0,1.0,0,0.135904
-0.051825523,-0.0009238863,0.04428474,9.32694e-10,0.0024303624,-7.105136e-09,1.0,1.0,0,0.134983
-0.05139189,-0.0009238863,0.043368336,5.099906e-10,0.0024304974,-7.970144e-09,1.0,1.0,0,0.134070
-0.050967406,-0.0009238863,0.042451933,3.142209e-10,0.0024306085,-8.146186e-09,1.0,1.0,0,0.133157
-0.05055208,-0.0009238863,0.04153553,3.275234e-10,0.0024307016,-7.831402e-09,1.0,1.0,0,0.132243
-0.050145913,-0.0009238863,0.040619124,2.8205407e-10,0.0024307796,-8.370334e-09,1.0,1.0,0,0.131329
-0.049748898,-0.0009238863,0.03970272,3.5512274e-10,0.0024308406,-7.857837e-09,1.0,1.0,0,0.130415
-0.04936104,-0.0009238863,0.038786314,2.0025423e-10,0.0024308932,-8.154591e-09,1.0,1.0,0,0.129500
-0.048982333,-0.0009238863,0.037869904,1.5936252e-10,0.002430937,-7.1767468e-09,1.0,1.0,0,0.128586
-0.048612785,-0.0009238863,0.036953494,1.4149587e-10,0.0024309733,-7.615903e-09,1.0,1.0,0,0.127671
-0.048252393,-0.0009238863,0.03603708,4.2818948e-10,0.0024310087,-7.56667e-09,1.0,1.0,0,0.126756
-0.047901154,-0.0009238863,0.035120673,6.096575e-10,0.0024310285,-7.2588238e-09,1.0,1.0,0,0.125840
-0.04755907,-0.0009238863,0.03420426,3.2296096e-10,0.0024310555,-7.551403e-09,1.0,1.0,0,0.124916
-0.04722624,-0.0009238863,0.03328785,3.6843711e-10,0.002431076,-6.188474e-09,1.0,1.0,0,0.124002
-0.04690256,-0.0009238863,0.03237144,1.32302945e-11,0.00243108,-7.453238e-09,1.0,1.0,0,0.123086
-0.04658804,-0.0009238863,0.03145503,-2.4129926e-10,0.002431092,-7.470725e-09,1.0,1.0,0,0.122172
-0.04628267,-0.0009238863,0.030538615,-4.0966078e-11,0.0024310953,-7.026311e-09,1.0,1.0,0,0.121256
-0.045986462,-0.0009238863,0.029622206,-6.004151e-14,0.0024311002,-6.4424426e-09,1.0,1.0,0,0.120340
-0.045699406,-0.0009238863,0.028705796,2.411704e-10,0.0024311037,-6.3768355e-09,1.0,1.0,0,0.119426
-0.045421503,-0.0009238863,0.027789388,2.4116395e-10,0.0024311002,-7.0557356e-09,1.0,1.0,0,0.118510
-0.04515276,-0.0009238863,0.026872978,2.4116456e-10,0.0024311037,-6.983059e-09,1.0,1.0,0,0.117595
-0.044893168,-0.0009238863,0.025956567,-2.766251e-11,0.0024311005,-6.596687e-09,1.0,1.0,0,0.116679
-0.044642735,-0.0009238863,0.025040159,-2.0039206e-10,0.002431104,-6.6966037e-09,1.0,1.0,0,0.115764
-0.044401456,-0.0009238863,0.024123747,2.0054548e-10,0.002431099,-2.1057014e-08,1.0,1.0,0,0.114840
-0.044169426,-0.0009238863,0.023207337,-1.8676876e-11,0.0024310935,-2.4121878e-08,1.0,1.0,0,0.113924
-0.043946553,-0.0009238863,0.022290926,-3.2763617e-10,0.0024310895,-4.482902e-09,1.0,1.0,0,0.113008
-0.043732833,-0.0009238863,0.021374516,-8.509674e-10,0.0024310926,-1.4186442e-09,1.0,1.0,0,0.112093
-0.04352827,-0.0009238863,0.020458106,-5.1860277e-10,0.0024310877,-2.3346292e-08,1.0,1.0,0,0.111178
-0.043332864,-0.0009238863,0.019541696,8.300744e-11,0.002431082,-2.2146214e-08,1.0,1.0,0,0.110262
-0.04314661,-0.0009238863,0.018625285,2.6781458e-10,0.0024310783,-1.5370432e-09,1.0,1.0,0,0.109347
-0.042969514,-0.0009238863,0.017708875,8.541703e-12,0.002431075,2.3335705e-08,1.0,1.0,0,0.108432
-0.04280157,-0.0009238863,0.016792465,-3.0992447e-10,0.0024310725,2.3490912e-08,1.0,1.0,0,0.107516
-0.042642783,-0.0009238863,0.015876057,-2.9543393e-10,0.0024310674,-3.983689e-10,1.0,1.0,0,0.106601
-0.042493153,-0.0009238863,0.014959646,-3.2760866e-10,0.0024310637,-1.5681285e-09,1.0,1.0,0,0.105686
-0.042352676,-0.0009238863,0.014043237,-8.1610746e-11,0.002431058,-2.3809692e-08,1.0,1.0,0,0.104761
-0.04222145,-0.0009238863,0.013126828,1.2908147e-10,0.0024310527,-2.2540938e-08,1.0,1.0,0,0.103845
-0.04209938,-0.0009238863,0.012210418,5.831381e-10,0.002431049,1.3674095e-09,1.0,1.0,0,0.102930
-0.041986465,-0.0009238863,0.011294007,4.957654e-10,0.0024310455,6.426225e-10,1.0,1.0,0,0.102015
-0.041882705,-0.0009238863,0.010377597,7.2368e-10,0.0024310404,-1.051035e-09,1.0,1.0,0,0.101099
-0.0417881,-0.0009238863,0.009461187,7.2367556e-10,0.0024310376,-1.4359469e-09,1.0,1.0,0,0.100184
-0.04170265,-0.0009238863,0.008544777,7.236753e-10,0.0024310332,-1.5127902e-09,1.0,1.0,0,0.099269
-0.041626357,-0.0009238863,0.0076283664,7.238738e-10,0.0024310297,-2.2405282e-09,1.0,1.0,0,0.098354
-0.04155922,-0.0009238863,0.006711956,7.234389e-10,0.0024310253,-2.2130788e-09,1.0,1.0,0,0.097438
-0.041501235,-0.0009238863,0.005795546,7.237246e-10,0.0024310206,-7.3164186e-09,1.0,1.0,0,0.096523
-0.041452408,-0.0009238863,0.004879135,8.3773305e-10,0.0024310164,-1.375972e-08,1.0,1.0,0,0.095608
-0.041412733,-0.0009238863,0.0039627245,1.119836e-09,0.002431012,-1.6640671e-08,1.0,1.0,0,0.094682
-0.041382313,-0.0009238863,0.003046314,9.92604e-10,0.0024310143,-1.8687228e-08,1.0,1.0,0,0.093768
-0.041361045,-0.0009238863,0.0021299035,9.650003e-10,0.0024310024,-1.8915818e-08,1.0,1.0,0,0.092852
-0.041348934,-0.0009238863,0.0012134932,9.650419e-10,0.0024310048,-2.0150118e-08,1.0,1.0,0,0.091938
-0.041345976,-0.0009238863,0.00029708282,7.6468326e-10,0.002430993,-1.9726816e-08,1.0,1.0,0,0.009031
-0.041347884,-0.0009238863,-0.00020184105,-2.588826e-07,0.0024340162,5.8732723e-05,1.0,1.0,0,-0.003200
-0.041350175,-0.0009238863,-0.00022812642,-2.943651e-07,0.0024374402,6.637648e-05,1.0,1.0,0,0.014327
-0.04135103,-0.0009238863,-8.2753475e-05,-1.0833843e-07,0.0024386866,2.4076795e-05,1.0,1.0,0,0.006286
-0.04135084,-0.0009238863,2.0367814e-05,2.5943484e-08,0.0024384023,-5.924779e-06,1.0,1.0,0,-0.001883
-0.04135046,-0.0009238863,4.0167604e-05,5.2308785e-08,0.0024378134,-1.1686048e-05,1.0,1.0,0,0.002116
-0.041350268,-0.0009238863,1.950584e-05,2.543347e-08,0.002437506,-5.6799663e-06,1.0,1.0,0,0.001912
-0.041350268,-0.0009238863,-3.7691376e-07,-4.2126438e-10,0.0024375138,1.14497524e-07,1.0,1.0,0,-0.000641
-0.041350365,-0.0009238863,-6.5899962e-06,-8.320825e-09,0.0024376183,1.914517e-06,1.0,1.0,0,0.000236
-0.041350365,-0.0009238863,-4.164649e-06,-5.188243e-09,0.0024376854,1.2126211e-06,1.0,1.0,0,0.000358
-0.041350365,-0.0009238863,-5.6719205e-07,-7.1342093e-10,0.0024377026,1.7993857e-07,1.0,1.0,0,-0.000040
-0.041350365,-0.0009238863,9.863891e-07,1.2631749e-09,0.002437688,-2.9208942e-07,1.0,1.0,0,0.000017
-0.041350365,-0.0009238863,8.272711e-07,1.1273598e-09,0.002437675,-2.487606e-07,1.0,1.0,0,0.000061
-0.041350365,-0.0009238863,2.1974981e-07,2.997379e-10,0.0024376716,-7.865118e-08,1.0,1.0,0,0.000010
-0.041350365,-0.0009238863,-1.2816011e-07,-3.4900186e-10,0.0024376677,5.55219e-08,1.0,1.0,0,-0.000003
-0.041350365,-0.0009238863,-1.5598845e-07,-9.432008e-11,0.002437671,5.015906e-08,1.0,1.0,0,0.000009
-0.041350365,-0.0009238863,-6.021609e-08,-2.7485084e-10,0.0024376793,1.6492404e-08,1.0,1.0,0,0.000005
-0.041350365,-0.0009238863,1.5424806e-08,-1.0755245e-10,0.0024376714,-2.33665e-08,1.0,1.0,0,-0.000002
-0.041350365,-0.0009238863,3.1196087e-08,4.3652464e-11,0.0024376786,-2.0146851e-08,1.0,1.0,0,0.000002
-0.041350365,-0.0009238863,1.8440993e-08,1.2798788e-12,0.0024376707,-2.1039885e-08,1.0,1.0,0,0.000001
-0.041350365,-0.0009238863,6.3420282e-09,-2.4113853e-10,0.0024376772,-1.940698e-08,1.0,1.0,0,0.000001
-0.041350365,-0.0009238863,-2.1168536e-09,2.2791119e-10,0.0024376707,4.0488617e-09,1.0,1.0,0,-0.000002
-0.041350365,-0.0009238863,-9.357181e-09,5.408652e-11,0.00243768,2.4164482e-08,1.0,1.0,0,100
-0.0019871711,1.4193622,-0.20128989,0.3752007,0.0023093782,0.04559518,0.0,0.0,0,-0.753655
-0.0039744377,1.4277289,-0.20101729,0.3718409,0.004562518,0.045067616,0.0,0.0,0,-0.677243
-0.005961895,1.435999,-0.20102444,0.36756125,0.0068142503,0.0450389,0.0,0.0,0,-0.664855
-0.007949447,1.4441721,-0.20103109,0.363237,0.0090657165,0.045033466,0.0,0.0,0,-0.656560
-0.009937,1.4522481,-0.20103776,0.35891426,0.0113168135,0.045026474,0.0,0.0,0,-0.648208
-0.011924649,1.4602268,-0.20104444,0.3545922,0.013567572,0.04501937,0.0,0.0,0,-0.639859
-0.013912392,1.4681084,-0.20105109,0.35027027,0.015817983,0.045012303,0.0,0.0,0,-0.631489
-0.015900135,1.4758929,-0.20105772,0.34594825,0.018068042,0.045005597,0.0,0.0,0,-0.623166
-0.017887974,1.4835801,-0.20106432,0.34162617,0.020317754,0.044998545,0.0,0.0,0,-0.614863
-0.019875908,1.4911702,-0.2010709,0.33730403,0.022567159,0.044992115,0.0,0.0,0,-0.606604
-0.021863937,1.4986631,-0.20107746,0.33298185,0.024816211,0.04498521,0.0,0.0,0,-0.598393
-0.023851966,1.5060589,-0.20108402,0.32865956,0.027064953,0.044978935,0.0,0.0,0,-0.590175
-0.025840187,1.5133574,-0.20109054,0.3243373,0.029313339,0.044972066,0.0,0.0,0,-0.582036
-0.027828407,1.5205588,-0.20109706,0.32001495,0.031561416,0.044965725,0.0,0.0,0,-0.573888
-0.029816628,1.527663,-0.20110352,0.31569257,0.03380914,0.044958882,0.0,0.0,0,-0.565827
-0.03180504,1.53467,-0.20110998,0.31137016,0.036056552,0.044952404,0.0,0.0,0,-0.557778
-0.03379345,1.5415798,-0.2011164,0.30704772,0.038303636,0.04494561,0.0,0.0,0,-0.549779
-0.035781957,1.5483925,-0.20112279,0.3027252,0.040550377,0.044939008,0.0,0.0,0,-0.541829
-0.03777046,1.5551081,-0.20112917,0.29840264,0.042796772,0.044932224,0.0,0.0,0,-0.533908
-0.03975916,1.5617263,-0.20113555,0.29407996,0.045042858,0.044925794,0.0,0.0,0,-0.526052
-0.04174776,1.5682474,-0.20114188,0.2897573,0.047288585,0.044918817,0.0,0.0,0,-0.518241
-0.043736555,1.5746714,-0.20114818,0.2854346,0.049533974,0.04491211,0.0,0.0,0,-0.510472
-0.045725442,1.5809982,-0.20115443,0.28111184,0.051779047,0.044905383,0.0,0.0,0,-0.502767
-0.04771433,1.5872277,-0.20116067,0.27678904,0.054023772,0.04489873,0.0,0.0,0,-0.495108
-0.04970331,1.5933601,-0.20116684,0.2724662,0.05626818,0.044891983,0.0,0.0,0,-0.404398
-0.051691532,1.5993739,-0.20109174,0.26719105,0.0585125,0.04488627,0.0,0.0,0,-0.478123
-0.053679753,1.6052905,-0.20109169,0.26287064,0.060756817,0.044886284,0.0,0.0,0,-0.470681
-0.055667974,1.6111099,-0.20109165,0.25855023,0.06300113,0.04488624,0.0,0.0,0,-0.463347
-0.05765619,1.6168323,-0.2010916,0.25422978,0.065245435,0.04488624,0.0,0.0,0,-0.456041
-0.059644412,1.6224575,-0.20109156,0.24990936,0.06748975,0.044886224,0.0,0.0,0,-0.448817
-0.061632633,1.6279856,-0.2010915,0.24558894,0.06973405,0.044886176,0.0,0.0,0,-0.441667
-0.06362085,1.6334165,-0.20109145,0.24126853,0.07197837,0.04488615,0.0,0.0,0,-0.434590
-0.06560917,1.6387503,-0.20109141,0.2369481,0.07422268,0.044886153,0.0,0.0,0,-0.427591
-0.06759739,1.6439869,-0.20109136,0.23262769,0.07646698,0.04488611,0.0,0.0,0,-0.420688
-0.06958561,1.6491266,-0.20109132,0.22830726,0.0787113,0.044886097,0.0,0.0,0,-0.413838
-0.07157393,1.6541691,-0.20109124,0.22398685,0.0809556,0.044886015,0.0,0.0,0,-0.407091
-0.073562145,1.6591144,-0.2010912,0.21966644,0.083199896,0.044885967,0.0,0.0,0,-0.400430
-0.07555036,1.6639625,-0.20109113,0.215346,0.08544419,0.044885963,0.0,0.0,0,-0.393869
-0.077538684,1.6687136,-0.20109105,0.21102557,0.08768848,0.044885945,0.0,0.0,0,-0.387401
-0.0795269,1.6733674,-0.20109098,0.20670515,0.089932784,0.04488591,0.0,0.0,0,-0.381035
-0.081515215,1.6779242,-0.20109093,0.20238474,0.092177086,0.04488588,0.0,0.0,0,-0.374768
-0.08350353,1.6823838,-0.20109089,0.19806431,0.09442138,0.044885848,0.0,0.0,0,-0.368610
-0.085491754,1.6867462,-0.20109084,0.19374391,0.096665666,0.044885814,0.0,0.0,0,-0.362560
-0.08748007,1.6910117,-0.20109078,0.1894235,0.09890995,0.044885773,0.0,0.0,0,-0.356623
-0.08946838,1.6951798,-0.20109074,0.18510307,0.10115423,0.044885736,0.0,0.0,0,-0.350806
-0.0914567,1.6992509,-0.2010907,0.18078265,0.10339851,0.04488573,0.0,0.0,0,-0.345106
-0.09344502,1.7032249,-0.2010906,0.17646223,0.1056428,0.044885732,0.0,0.0,0,-0.339534
-0.09543333,1.7071017,-0.20109053,0.17214182,0.10788709,0.044885736,0.0,0.0,0,-0.334088
-0.097421646,1.7108815,-0.20109046,0.16782139,0.11013137,0.044885755,0.0,0.0,0,-0.328777
-0.09940996,1.714564,-0.20109038,0.16350096,0.11237567,0.04488576,0.0,0.0,0,-0.323597
-0.101398274,1.7181494,-0.2010903,0.15918054,0.11461995,0.04488575,0.0,0.0,0,-0.318545
-0.103386596,1.7216376,-0.20109025,0.15486011,0.11686422,0.04488575,0.0,0.0,0,-0.313666
-0.10537491,1.7250288,-0.20109017,0.1505397,0.11910851,0.044885717,0.0,0.0,0,-0.308917
-0.10736332,1.7283227,-0.2010901,0.14621927,0.121352814,0.044885717,0.0,0.0,0,-0.304317
-0.109351635,1.7315197,-0.20109002,0.14189886,0.12359711,0.044885688,0.0,0.0,0,-0.299870
-0.11133995,1.7346195,-0.20108998,0.13757843,0.1258414,0.04488569,0.0,0.0,0,-0.295578
-0.11332836,1.7376221,-0.2010899,0.133258,0.12808567,0.044885635,0.0,0.0,0,-0.291443
-0.115316674,1.7405276,-0.20108981,0.12893757,0.13032994,0.04488562,0.0,0.0,0,-0.287477
-0.117305085,1.743336,-0.20108974,0.12461717,0.13257422,0.04488558,0.0,0.0,0,-0.283673
-0.119293496,1.7460473,-0.20108967,0.12029674,0.13481851,0.044885557,0.0,0.0,0,-0.280019
-0.12128191,1.7486613,-0.20108959,0.11597631,0.13706279,0.044885546,0.0,0.0,0,-0.276561
-0.12327023,1.7511783,-0.2010895,0.1116559,0.13930707,0.044885505,0.0,0.0,0,-0.273246
-0.12525864,1.753598,-0.20108941,0.10733548,0.14155133,0.0448855,0.0,0.0,0,-0.270135
-0.12724705,1.7559206,-0.20108931,0.103015065,0.14379562,0.04488548,0.0,0.0,0,-0.267176
-0.12923555,1.7581463,-0.20108919,0.098694645,0.1460399,0.04488547,0.0,0.0,0,-0.264382
-0.13122396,1.7602745,-0.2010891,0.094374225,0.1482842,0.044885434,0.0,0.0,0,-0.261782
-0.13321237,1.7623059,-0.201089,0.090053804,0.15052846,0.044885416,0.0,0.0,0,-0.259344
-0.13520078,1.76424,-0.2010889,0.0857334,0.15277272,0.04488542,0.0,0.0,0,-0.257063
-0.1371893,1.766077,-0.20108883,0.08141298,0.15501699,0.044885408,0.0,0.0,0,-0.254985
-0.13917771,1.767817,-0.20108871,0.07709255,0.15726124,0.044885397,0.0,0.0,0,-0.253027
-0.14116621,1.7694597,-0.20108862,0.07277213,0.1595055,0.044885382,0.0,0.0,0,-0.251272
-0.14315462,1.7710054,-0.20108855,0.06845172,0.16174977,0.044885367,0.0,0.0,0,-0.249656
-0.14514312,1.7724539,-0.20108843,0.0641313,0.16399403,0.04488536,0.0,0.0,0,-0.248189
-0.14713164,1.7738051,-0.20108835,0.05981088,0.16623831,0.044885322,0.0,0.0,0,-0.246890
-0.14912014,1.7750595,-0.20108823,0.055490468,0.16848259,0.044885296,0.0,0.0,0,-0.245714
-0.15110865,1.7762165,-0.20108816,0.051170047,0.17072687,0.044885278,0.0,0.0,0,-0.244690
-0.15309715,1.7772765,-0.20108804,0.046849627,0.17297111,0.04488526,0.0,0.0,0,-0.243782
-0.15508565,1.7782393,-0.20108798,0.042529214,0.1752154,0.044885233,0.0,0.0,0,-0.243013
-0.15707426,1.779105,-0.20108788,0.038208798,0.17745967,0.044885207,0.0,0.0,0,-0.242323
-0.15906277,1.7798734,-0.20108776,0.03388838,0.17970394,0.044885196,0.0,0.0,0,-0.241768
-0.16105127,1.7805449,-0.20108764,0.029567966,0.1819482,0.04488517,0.0,0.0,0,-0.241292
-0.16303988,1.7811192,-0.20108752,0.025247552,0.18419248,0.044885166,0.0,0.0,0,-0.240893
-0.16502848,1.7815964,-0.2010874,0.020927139,0.18643674,0.04488516,0.0,0.0,0,-0.240549
-0.16701698,1.7819765,-0.20108728,0.016606726,0.188681,0.04488515,0.0,0.0,0,-0.240279
-0.16900559,1.7822592,-0.20108716,0.01228631,0.19092527,0.044885118,0.0,0.0,0,-0.240053
-0.17099419,1.782445,-0.20108704,0.007965896,0.19316953,0.044885103,0.0,0.0,0,-0.239870
-0.1729827,1.7825336,-0.20108692,0.0036454825,0.19541377,0.0448851,0.0,0.0,0,-0.239683
-0.1749713,1.7825251,-0.20108679,-0.00067493133,0.19765802,0.044885077,0.0,0.0,0,-0.239515
-0.1769598,1.7824193,-0.20108664,-0.004995345,0.19990225,0.044885073,0.0,0.0,0,-0.239361
-0.17894831,1.7822165,-0.20108652,-0.009315759,0.20214649,0.04488506,0.0,0.0,0,-0.239159
-0.1809369,1.7819166,-0.20108637,-0.013636172,0.20439075,0.044885047,0.0,0.0,0,-0.238953
-0.18292542,1.7815197,-0.20108625,-0.017956583,0.20663498,0.044885017,0.0,0.0,0,-0.238674
-0.18491402,1.7810254,-0.20108609,-0.022276994,0.20887923,0.04488499,0.0,0.0,0,-0.238361
-0.18690261,1.780434,-0.20108597,-0.026597407,0.21112347,0.044884995,0.0,0.0,0,-0.237988
-0.18889122,1.7797457,-0.2010858,-0.030917821,0.21336772,0.044884995,0.0,0.0,0,-0.237513
-0.19087982,1.77896,-0.20108564,-0.035238232,0.21561196,0.044884983,0.0,0.0,0,-0.236982
-0.19286843,1.7780774,-0.20108552,-0.039558645,0.2178562,0.044884972,0.0,0.0,0,-0.236309
-0.19485703,1.7770973,-0.2010854,-0.04387906,0.22010046,0.044884987,0.0,0.0,0,-0.235582
-0.19684573,1.7760205,-0.20108528,-0.048199475,0.22234471,0.044884976,0.0,0.0,0,-0.234698
-0.19883442,1.7748463,-0.20108517,-0.05251989,0.22458898,0.044884972,0.0,0.0,0,-0.233701
-0.20082311,1.7735751,-0.20108505,-0.056840304,0.22683322,0.044884942,0.0,0.0,0,-0.232574
-0.20281187,1.7722065,-0.20108493,-0.061160717,0.22907747,0.044884928,0.0,0.0,0,-0.231310
-0.20480056,1.770741,-0.20108481,-0.065481134,0.23132174,0.04488491,0.0,0.0,0,-0.229897
-0.2067893,1.7691784,-0.20108466,-0.06980154,0.23356599,0.044884887,0.0,0.0,0,-0.228348
-0.20877805,1.7675186,-0.2010845,-0.074121945,0.23581022,0.04488485,0.0,0.0,0,-0.226623
-0.21076675,1.7657617,-0.20108435,-0.07844235,0.23805445,0.044884834,0.0,0.0,0,-0.224751
-0.21275549,1.7639077,-0.20108418,-0.08276276,0.24029867,0.04488483,0.0,0.0,0,-0.222726
-0.21474424,1.7619565,-0.20108405,-0.087083176,0.24254292,0.044884812,0.0,0.0,0,-0.220516
-0.21673298,1.759908,-0.20108387,-0.09140358,0.24478716,0.044884786,0.0,0.0,0,-0.218191
-0.21872178,1.7577626,-0.20108373,-0.09572399,0.24703139,0.044884764,0.0,0.0,0,-0.215639
-0.22071056,1.7555199,-0.20108357,-0.10004439,0.24927562,0.04488477,0.0,0.0,0,-0.212966
-0.22269936,1.75318,-0.20108339,-0.1043648,0.25151986,0.04488478,0.0,0.0,0,-0.210114
-0.22468814,1.7507432,-0.20108323,-0.10868521,0.2537641,0.04488477,0.0,0.0,0,-0.207100
-0.22667699,1.7482092,-0.2010831,-0.11300562,0.25600833,0.044884752,0.0,0.0,0,-0.203904
-0.22866578,1.7455779,-0.20108294,-0.117326036,0.25825256,0.044884715,0.0,0.0,0,-0.200588
-0.23065467,1.7428498,-0.2010828,-0.12164645,0.26049677,0.0448847,0.0,0.0,0,-0.197058
-0.23264351,1.7400242,-0.20108266,-0.12596686,0.262741,0.044884674,0.0,0.0,0,-0.193408
-0.2346324,1.7371017,-0.2010825,-0.13028727,0.26498523,0.044884674,0.0,0.0,0,-0.189588
-0.23662129,1.734082,-0.2010823,-0.13460769,0.26722947,0.04488466,0.0,0.0,0,-0.185619
-0.23861018,1.7309653,-0.20108214,-0.1389281,0.2694737,0.044884626,0.0,0.0,0,-0.181498
-0.24059907,1.7277513,-0.20108199,-0.1432485,0.27171794,0.044884603,0.0,0.0,0,-0.177212
-0.242588,1.7244401,-0.2010818,-0.1475689,0.27396217,0.044884544,0.0,0.0,0,-0.172815
-0.24457693,1.7210319,-0.20108166,-0.15188931,0.27620637,0.044884503,0.0,0.0,0,-0.168252
-0.24656591,1.7175264,-0.20108151,-0.15620972,0.2784506,0.04488445,0.0,0.0,0,-0.163574
-0.2485549,1.7139239,-0.20108135,-0.16053014,0.28069484,0.044884447,0.0,0.0,0,-0.158734
-0.2505439,1.7102243,-0.20108116,-0.16485052,0.28293908,0.04488442,0.0,0.0,0,-0.153797
-0.25253287,1.7064276,-0.20108096,-0.16917092,0.2851833,0.044884402,0.0,0.0,0,-0.148721
-0.25452185,1.7025337,-0.20108083,-0.17349133,0.2874275,0.044884365,0.0,0.0,0,-0.143504
-0.25651088,1.6985426,-0.20108064,-0.17781173,0.28967172,0.044884346,0.0,0.0,0,-0.138203
-0.25849995,1.6944544,-0.20108044,-0.18213215,0.29191592,0.044884346,0.0,0.0,0,-0.132774
-0.260489,1.6902692,-0.20108025,-0.18645255,0.29416016,0.044884317,0.0,0.0,0,-0.127217
-0.26247805,1.6859866,-0.20108005,-0.19077295,0.29640436,0.0448843,0.0,0.0,0,-0.121574
-0.26446715,1.681607,-0.20107989,-0.19509335,0.2986486,0.04488429,0.0,0.0,0,-0.115822
-0.26645622,1.6771302,-0.20107973,-0.19941375,0.3008928,0.04488427,0.0,0.0,0,-0.109969
-0.26844525,1.6725563,-0.20107953,-0.20373414,0.30313697,0.044884223,0.0,0.0,0,-0.104042
-0.27043438,1.6678854,-0.20107932,-0.20805454,0.30538118,0.04488419,0.0,0.0,0,-0.097995
-0.27242345,1.6631172,-0.20107913,-0.21237494,0.30762538,0.044884145,0.0,0.0,0,-0.091877
-0.27441257,1.6582519,-0.20107897,-0.21669535,0.3098696,0.044884063,0.0,0.0,0,-0.085669
-0.2764017,1.6532894,-0.20107877,-0.22101577,0.3121138,0.044884045,0.0,0.0,0,-0.079380
-0.27839082,1.6482298,-0.20107858,-0.22533615,0.314358,0.044884,0.0,0.0,0,-0.073017
-0.28038,1.6430732,-0.20107837,-0.22965656,0.3166022,0.044884026,0.0,0.0,0,-0.066595
-0.2823692,1.6378195,-0.20107818,-0.23397699,0.3188464,0.04488405,0.0,0.0,0,-0.060077
-0.28435835,1.6324685,-0.20107801,-0.2382974,0.32109064,0.04488404,0.0,0.0,0,-0.053497
-0.28634757,1.6270204,-0.20107785,-0.2426178,0.32333484,0.04488403,0.0,0.0,0,-0.046855
-0.2883368,1.6214752,-0.20107763,-0.24693821,0.32557905,0.044883944,0.0,0.0,0,-0.040156
-0.29032606,1.6158328,-0.20107742,-0.2512586,0.32782328,0.044883944,0.0,0.0,0,-0.033393
-0.2923153,1.6100934,-0.20107722,-0.255579,0.3300675,0.04488393,0.0,0.0,0,-0.026564
-0.29430455,1.6042565,-0.20107701,-0.2598994,0.3323117,0.044883907,0.0,0.0,0,-0.019711
-0.29629388,1.5983227,-0.20107679,-0.2642198,0.3345559,0.044883914,0.0,0.0,0,-0.012791
-0.2982832,1.5922918,-0.20107658,-0.26854017,0.3368001,0.0448839,0.0,0.0,0,-0.005830
-0.30027252,1.5861639,-0.20107636,-0.27286056,0.3390443,0.04488382,0.0,0.0,0,0.001181
-0.30226183,1.5799387,-0.20107615,-0.27718094,0.3412885,0.044883847,0.0,0.0,0,0.008228
-0.3042512,1.5736164,-0.20107594,-0.28150132,0.3435327,0.044883844,0.0,0.0,0,0.015333
-0.30624062,1.5671968,-0.20107572,-0.2858217,0.34577692,0.044883844,0.0,0.0,0,0.022443
-0.30822998,1.5606803,-0.20107551,-0.2901421,0.34802112,0.044883844,0.0,0.0,0,0.029604
-0.31021938,1.5540667,-0.20107529,-0.2944624,0.35026535,0.044883825,0.0,0.0,0,0.036795
-0.31220874,1.5473558,-0.20107505,-0.29878283,0.35250956,0.044883803,0.0,0.0,0,0.044028
-0.31419817,1.5405477,-0.20107484,-0.30310324,0.35475376,0.04488382,0.0,0.0,0,0.051273
-0.31618756,1.5336425,-0.20107463,-0.30742362,0.356998,0.04488382,0.0,0.0,0,0.058540
-0.31817704,1.5266403,-0.20107439,-0.31174394,0.3592422,0.044883795,0.0,0.0,0,0.065846
-0.3201665,1.5195408,-0.20107415,-0.31606436,0.36148638,0.044883758,0.0,0.0,0,0.073146
-0.32215595,1.5123444,-0.20107393,-0.32038477,0.36373055,0.044883743,0.0,0.0,0,0.080493
-0.3241454,1.5050505,-0.20107372,-0.32470515,0.36597472,0.04488372,0.0,0.0,0,0.087845
-0.32613492,1.4976597,-0.20107348,-0.32902554,0.3682189,0.044883702,0.0,0.0,0,0.095202
-0.32812446,1.4901717,-0.20107326,-0.33334592,0.37046307,0.044883683,0.0,0.0,0,0.102568
-0.33011398,1.4825866,-0.20107302,-0.3376663,0.37270725,0.044883672,0.0,0.0,0,0.109959
-0.33210358,1.4749044,-0.20107281,-0.3419867,0.37495142,0.044883672,0.0,0.0,0,0.117355
-0.33409315,1.4671249,-0.20107257,-0.34630707,0.3771956,0.044883657,0.0,0.0,0,0.124749
-0.33608276,1.4592484,-0.20107237,-0.35062742,0.37943977,0.044883627,0.0,0.0,0,0.132134
-0.33807236,1.4512749,-0.20107214,-0.35494778,0.38168395,0.044883583,0.0,0.0,0,0.139548
-0.340062,1.4432042,-0.2010719,-0.35926816,0.38392812,0.044883568,0.0,0.0,0,0.146945
-0.34205166,1.4350362,-0.20107166,-0.3635885,0.38617232,0.044883557,0.0,0.0,0,0.154343
-0.34404135,1.4267712,-0.20107143,-0.3679089,0.3884165,0.04488352,0.0,0.0,0,0.161747
-0.34603104,1.4184088,-0.20107119,-0.37222925,0.39066067,0.0448835,0.0,0.0,0,0.169114
-0.34802073,1.4099494,-0.20107095,-0.37654966,0.39290485,0.04488347,0.0,0.0,0,0.176490
-0.35001048,1.4013929,-0.20107071,-0.38087,0.39514902,0.04488346,0.0,0.0,0,0.183852
-0.35200024,1.3927394,-0.20107047,-0.3851904,0.3973932,0.044883452,0.0,0.0,0,0.191216
-0.35398993,1.3839885,-0.20107023,-0.38951078,0.39963734,0.04488343,0.0,0.0,0,0.198534
-0.35597968,1.3751407,-0.20106998,-0.39383116,0.40188152,0.044883415,0.0,0.0,0,0.205847
-0.35796946,1.3661957,-0.20106971,-0.39815152,0.4041257,0.044883393,0.0,0.0,0,0.213141
-0.35995927,1.3571535,-0.20106944,-0.4024719,0.40636986,0.044883385,0.0,0.0,0,0.220427
-0.36194906,1.3480141,-0.20106916,-0.40679225,0.40861404,0.044883355,0.0,0.0,0,0.227656
-0.3639389,1.3387778,-0.20106891,-0.41111264,0.4108582,0.044883363,0.0,0.0,0,0.234873
-0.36592874,1.3294443,-0.20106867,-0.415433,0.4131024,0.044883482,0.0,0.0,0,0.242060
-0.36791858,1.3200136,-0.20106843,-0.41975337,0.41534656,0.044883467,0.0,0.0,0,0.249231
-0.36990848,1.3104857,-0.20106816,-0.4240737,0.41759074,0.044883445,0.0,0.0,0,0.256344
-0.3718984,1.3008606,-0.2010679,-0.4283941,0.4198349,0.0448834,0.0,0.0,0,0.263429
-0.3738883,1.2911384,-0.20106764,-0.43271446,0.4220791,0.044883367,0.0,0.0,0,0.270467
-0.37587827,1.2813191,-0.20106737,-0.43703482,0.42432326,0.04488336,0.0,0.0,0,0.277452
-0.37786824,1.2714028,-0.20106712,-0.4413552,0.42656744,0.04488336,0.0,0.0,0,0.284410
-0.37985826,1.2613893,-0.20106685,-0.44567555,0.42881164,0.044883322,0.0,0.0,0,0.291316
-0.38184825,1.2512785,-0.20106657,-0.44999593,0.4310558,0.044883303,0.0,0.0,0,0.298161
-0.38383827,1.2410707,-0.2010663,-0.4543163,0.4333,0.0448833,0.0,0.0,0,0.304952
-0.38582835,1.2307657,-0.20106602,-0.45863667,0.43554416,0.04488331,0.0,0.0,0,0.311683
-0.38781843,1.2203636,-0.20106575,-0.46295702,0.43778834,0.0448833,0.0,0.0,0,0.318356
-0.38980848,1.2098644,-0.2010655,-0.46727738,0.4400325,0.044883274,0.0,0.0,0,0.324954
-0.39179856,1.199268,-0.20106523,-0.47159773,0.4422767,0.044883274,0.0,0.0,0,0.331482
-0.39378864,1.1885746,-0.20106497,-0.47591814,0.44452086,0.04488323,0.0,0.0,0,0.337940
-0.39577875,1.1777838,-0.2010647,-0.4802385,0.44676504,0.04488323,0.0,0.0,0,0.344330
-0.39776888,1.166896,-0.20106442,-0.4845589,0.4490092,0.044883233,0.0,0.0,0,0.350611
-0.39975905,1.1559111,-0.20106415,-0.48887926,0.45125338,0.044883244,0.0,0.0,0,0.356836
-0.40174922,1.1448289,-0.20106384,-0.49319965,0.45349753,0.04488316,0.0,0.0,0,0.362933
-0.40373945,1.1336497,-0.20106359,-0.49752,0.45574167,0.04488317,0.0,0.0,0,0.368963
-0.40572968,1.1223733,-0.20106332,-0.50184035,0.45798582,0.04488315,0.0,0.0,0,0.374861
-0.40771994,1.1109998,-0.20106307,-0.50616074,0.46022996,0.044883147,0.0,0.0,0,0.380676
-0.40971023,1.0995291,-0.2010628,-0.5104811,0.46247414,0.044883166,0.0,0.0,0,0.386371
-0.4117005,1.0879613,-0.20106252,-0.51480144,0.46471828,0.044883154,0.0,0.0,0,0.391926
-0.4136908,1.0762966,-0.20106223,-0.5191218,0.46696243,0.04488314,0.0,0.0,3,1.137586
-0.41561013,1.0645804,-0.1921002,-0.52076656,0.4671492,0.003735328,0.0,0.0,3,1.443471
-0.41745597,1.0528301,-0.18269713,-0.5216082,0.46506265,-0.04173166,0.0,0.0,3,1.582178
-0.4192323,1.0410366,-0.17384368,-0.5228933,0.4608771,-0.08371132,0.0,0.0,3,1.712261
-0.42094475,1.0291945,-0.16569476,-0.5244946,0.454773,-0.122081555,0.0,0.0,3,1.877061
-0.4225933,1.017301,-0.15756945,-0.5262501,0.44678152,-0.15982977,0.0,0.0,3,1.947499
-0.4241833,1.0053427,-0.15018046,-0.5286911,0.43714902,-0.19264981,0.0,0.0,3,2.341481
-0.4256977,0.9933442,-0.14050882,-0.529913,0.42526606,-0.2376599,0.0,0.0,3,2.322025
-0.42715898,0.98128814,-0.1336694,-0.532121,0.41180593,-0.26920235,0.0,0.0,3,2.555007
-0.4285613,0.9691844,-0.12603565,-0.53389525,0.39655942,-0.30493045,0.0,0.0,3,2.726561
-0.42989427,0.9570231,-0.11717607,-0.53610486,0.37936834,-0.3438218,0.0,0.0,3,2.938048
-0.43115893,0.94481164,-0.10837287,-0.5380401,0.36020568,-0.38325313,0.0,0.0,3,3.194869
-0.43234092,0.93255115,-0.09777228,-0.5399335,0.33873314,-0.4294516,0.0,0.0,0,2.787743
-0.43352428,0.9201993,-0.09775241,-0.54428977,0.31726125,-0.42943802,0.0,0.0,0,2.791755
-0.4347089,0.907756,-0.09773371,-0.54864633,0.29579005,-0.42942435,0.0,0.0,0,2.795563
-0.43589467,0.8952214,-0.097716205,-0.5530032,0.2743195,-0.4294107,0.0,0.0,0,2.799177
-0.43708158,0.8825954,-0.09769988,-0.55736023,0.25284964,-0.42939705,0.0,0.0,0,2.802551
-0.43826947,0.8698782,-0.09768475,-0.56171745,0.23138046,-0.42938343,0.0,0.0,0,2.805688
-0.43945837,0.8570697,-0.09767082,-0.566075,0.20991196,-0.42936984,0.0,0.0,0,2.808587
-0.44064802,0.84416986,-0.09765811,-0.5704327,0.18844417,-0.4293562,0.0,0.0,0,2.811214
-0.44183856,0.83117896,-0.09764662,-0.5747906,0.16697706,-0.42934257,0.0,0.0,0,2.813577
-0.44302973,0.81809694,-0.09763633,-0.5791485,0.14551063,-0.42932892,0.0,0.0,0,2.815636
-0.4442215,0.8049238,-0.097627275,-0.5835066,0.12404488,-0.42931527,0.0,0.0,0,2.817394
-0.44541374,0.79165953,-0.09761946,-0.5878648,0.1025798,-0.42930168,0.0,0.0,2,6.625439
-0.44653577,0.77924967,-0.09118209,-0.5502352,0.08173868,-0.41682258,0.0,0.0,2,4.870163
-0.4477385,0.767356,-0.098991714,-0.52758324,0.06068058,-0.4211622,0.0,0.0,2,6.363594
-0.44881994,0.75627583,-0.087582365,-0.49174413,0.040352896,-0.40655366,0.0,0.0,2,6.586013
-0.44979733,0.74609786,-0.077772155,-0.45193452,0.020630894,-0.39444014,0.0,0.0,0,2.370033
-0.45077485,0.7358279,-0.07777063,-0.4562871,0.0009094285,-0.39442953,0.0,0.0,0,-1.389092
-0.45175233,0.725466,-0.077770054,-0.46063963,-0.01881151,-0.39441898,0.0,0.0,0,-1.567923
-0.45272976,0.715012,-0.07777045,-0.46499217,-0.038531926,-0.39440838,0.0,0.0,0,-1.565110
-0.45370704,0.7044658,-0.077771805,-0.4693447,-0.058251817,-0.3943978,0.0,0.0,2,3.951322
-0.45449096,0.69509256,-0.0591303,-0.41744563,-0.0773066,-0.3810956,0.0,0.0,2,3.933539
-0.45535964,0.68702775,-0.066909224,-0.3595831,-0.097087204,-0.3956123,0.0,0.0,2,4.671337
-0.45602554,0.6803484,-0.0471596,-0.29823494,-0.116377056,-0.38579708,0.0,0.0,2,3.414852
-0.4567402,0.67490643,-0.051366407,-0.24355772,-0.13636819,-0.3998225,0.0,0.0,0,-2.007854
-0.4574543,0.6693725,-0.0513727,-0.24791096,-0.15635875,-0.3998115,0.0,0.0,0,-2.002189
-0.45816788,0.6637463,-0.05137999,-0.25226408,-0.17634878,-0.3998005,0.0,0.0,2,4.568558
-0.45876408,0.65958565,-0.039407603,-0.18743944,-0.19664967,-0.40601754,0.0,0.0,2,2.404569
-0.45925283,0.65641993,-0.028575417,-0.14352009,-0.2171208,-0.40942258,0.0,0.0,2,2.165003
-0.45970026,0.6542569,-0.023996752,-0.099329315,-0.23813534,-0.4202907,0.0,0.0,2,-0.143703
-0.4600901,0.6525689,-0.01819676,-0.0785272,-0.25930727,-0.42343837,0.0,0.0,0,-2.419490
-0.46047896,0.6507896,-0.01821058,-0.08288362,-0.2804785,-0.42342526,0.0,0.0,0,-2.413120
-0.46086675,0.6489186,-0.018225554,-0.08723983,-0.30164912,-0.42341214,0.0,0.0,0,-2.406653
-0.46125332,0.64695626,-0.018241677,-0.09159582,-0.32281908,-0.42339906,0.0,0.0,0,-2.400080
-0.4616386,0.64490235,-0.018258935,-0.09595158,-0.3439884,-0.423386,0.0,0.0,0,-2.393431
-0.46202248,0.6427569,-0.018277327,-0.100307085,-0.365157,-0.42337292,0.0,0.0,0,-2.386726
-0.46240503,0.6405197,-0.018296842,-0.104662314,-0.386325,-0.42335987,0.0,0.0,1,-2.137534
-0.4628477,0.6382386,-0.026197786,-0.10640281,-0.405658,-0.38666037,0.0,0.0,1,-2.012598
-0.46335492,0.6359106,-0.03456432,-0.1081899,-0.42307225,-0.3482851,0.0,0.0,1,-1.913309
-0.46391898,0.6335229,-0.041874155,-0.1105649,-0.43884897,-0.31553426,0.0,0.0,0,-1.818088
-0.46448207,0.631041,-0.041887213,-0.11490386,-0.45462543,-0.3155288,0.0,0.0,0,-1.812688
-0.4650442,0.6284649,-0.041900717,-0.1192427,-0.4704016,-0.3155234,0.0,0.0,0,-1.807137
-0.46560532,0.6257944,-0.04191466,-0.12358139,-0.48617747,-0.31551793,0.0,0.0,1,-1.608389
-0.46622038,0.62308604,-0.049032364,-0.12482655,-0.50014895,-0.27942953,0.0,0.0,1,-1.459733
-0.46688962,0.6203383,-0.056135945,-0.12610355,-0.51231974,-0.24341536,0.0,0.0,1,-1.295699
-0.46763834,0.6175657,-0.066377714,-0.1264433,-0.5219651,-0.19290657,0.0,0.0,0,-1.166088
-0.46838665,0.6146969,-0.06638349,-0.13077007,-0.53161037,-0.19290534,0.0,0.0,0,-1.161737
-0.4691345,0.61173207,-0.06638937,-0.13509682,-0.5412556,-0.1929041,0.0,0.0,0,-1.157248
-0.46988195,0.60867107,-0.06639534,-0.13942352,-0.55090076,-0.19290286,0.0,0.0,0,-1.152640
-0.47062898,0.6055139,-0.06640141,-0.14375019,-0.56054586,-0.19290164,0.0,0.0,2,4.950206
-0.47086444,0.60341793,-0.015382275,-0.09659466,-0.57008636,-0.19080988,0.0,0.0,2,2.186437
-0.47051853,0.6023938,0.042426687,-0.048907258,-0.5793086,-0.18444546,0.0,0.0,2,-2.420650
-0.46984538,0.6020622,0.07516902,-0.018188829,-0.58859766,-0.18578067,0.0,0.0,0,-0.966177
-0.46917176,0.60163444,0.07516305,-0.02251487,-0.5978866,-0.18577959,0.0,0.0,0,-0.980440
-0.4684977,0.6011103,0.075156994,-0.02684087,-0.6071755,-0.18577847,0.0,0.0,0,-0.993635
-0.46782327,0.60049003,0.07515085,-0.031166831,-0.6164644,-0.18577735,0.0,0.0,2,-4.916058
-0.46671253,0.600678,0.11870088,0.0047218427,-0.6257213,-0.1851377,0.0,0.0,2,-7.479715
-0.4650294,0.6018072,0.17566597,0.046607748,-0.6347077,-0.17972802,0.0,0.0,0,-0.771002
-0.46334586,0.60283995,0.17565998,0.04228227,-0.64369404,-0.17972703,0.0,0.0,0,-0.773592
-0.4616619,0.6037763,0.17565393,0.03795683,-0.65268034,-0.17972603,0.0,0.0,0,-0.776313
-0.45997748,0.6046164,0.17564783,0.03363143,-0.6616666,-0.17972504,0.0,0.0,2,-4.596796
-0.45800433,0.60601085,0.2046169,0.058153734,-0.6708338,-0.18334451,0.0,0.0,2,-5.163409
-0.45567602,0.6078571,0.23989637,0.078285545,-0.6797666,-0.17865549,0.0,0.0,0,-0.762737
-0.4533472,0.6096069,0.2398901,0.07396031,-0.6886993,-0.17865452,0.0,0.0,0,-0.762858
-0.451018,0.6112603,0.23988374,0.069635116,-0.69763196,-0.17865355,0.0,0.0,0,-0.763021
-0.44868833,0.6128172,0.23987731,0.065309964,-0.7065646,-0.17865255,0.0,0.0,0,-0.763215
-0.44635814,0.6142778,0.23987086,0.06098485,-0.7154972,-0.1786516,0.0,0.0,0,-0.763455
-0.4440276,0.6156421,0.2398643,0.056659773,-0.7244297,-0.1786506,0.0,0.0,0,-0.763710
-0.44169655,0.6169099,0.2398577,0.052334733,-0.7333622,-0.1786496,0.0,0.0,0,-0.763985
-0.4393651,0.6180813,0.239851,0.04800974,-0.7422946,-0.17864862,0.0,0.0,0,-0.764304
-0.4370331,0.6191563,0.23984423,0.043684777,-0.751227,-0.17864767,0.0,0.0,0,-0.764637
-0.43470058,0.6201349,0.23983744,0.03935986,-0.7601594,-0.17864668,0.0,0.0,0,-0.764970
-0.43236765,0.6210169,0.23983054,0.03503498,-0.76909167,-0.1786457,0.0,0.0,0,-0.765322
-0.43003422,0.62180257,0.23982358,0.030710151,-0.7780239,-0.17864473,0.0,0.0,0,-0.765683
-0.42770022,0.6224918,0.23981658,0.026385363,-0.7869561,-0.17864376,0.0,0.0,1,0.289076
-0.42543548,0.6231769,0.23092666,0.02745173,-0.7931909,-0.12469691,0.0,0.0,1,0.384945
-0.42322618,0.6238634,0.22354916,0.0287331,-0.7968814,-0.07380949,0.0,0.0,1,0.476394
-0.4210624,0.62453616,0.21747379,0.02915015,-0.7984417,-0.031206673,0.0,0.0,0,-0.029871
-0.41889867,0.62511176,0.21747354,0.024830006,-0.80000204,-0.031206673,0.0,0.0,0,-0.030809
-0.416735,0.62559026,0.21747334,0.020509863,-0.80156237,-0.031206656,0.0,0.0,0,-0.031732
-0.4145713,0.6259715,0.21747312,0.01618972,-0.8031227,-0.031206638,0.0,0.0,0,-0.032680
-0.41240755,0.62625575,0.21747291,0.01186958,-0.804683,-0.031206638,0.0,0.0,1,0.893906
-0.41030207,0.62652856,0.20995267,0.012539622,-0.8038415,0.016831208,0.0,0.0,1,1.058512
-0.40824848,0.62679535,0.203105,0.013416112,-0.8006351,0.064127676,0.0,0.0,1,1.124512
-0.4062396,0.6270218,0.19741802,0.012427079,-0.7957333,0.098036535,0.0,0.0,0,0.611031
-0.4042306,0.62715095,0.19741586,0.008105671,-0.79083145,0.098036356,0.0,0.0,0,0.609340
-0.40222144,0.6271833,0.19741371,0.0037842572,-0.7859296,0.09803621,0.0,0.0,0,0.607664
-0.4002122,0.62711877,0.19741157,-0.000537164,-0.7810278,0.098036036,0.0,0.0,0,0.606041
-0.39820272,0.6269571,0.19740942,-0.004858592,-0.776126,0.09803588,0.0,0.0,0,0.604449
-0.39619312,0.6266985,0.1974073,-0.009180028,-0.7712242,0.09803572,0.0,0.0,0,0.602900
-0.3941834,0.6263429,0.1974052,-0.013501471,-0.76632243,0.09803557,0.0,0.0,0,0.601418
-0.39217353,0.62589043,0.1974031,-0.017822918,-0.7614206,0.0980354,0.0,0.0,0,0.600014
-0.39016348,0.62534094,0.19740102,-0.022144374,-0.75651884,0.09803524,0.0,0.0,0,0.598716
-0.38815325,0.62469435,0.19739893,-0.026465835,-0.7516171,0.09803506,0.0,0.0,0,0.597479
-0.3861429,0.6239511,0.19739687,-0.030787306,-0.7467153,0.09803488,0.0,0.0,0,0.596385
-0.38413244,0.62311065,0.19739482,-0.035108786,-0.7418136,0.09803472,0.0,0.0,0,0.595405
-0.38212186,0.62217325,0.19739278,-0.039430268,-0.7369119,0.098034576,0.0,0.0,0,0.594559
-0.38011107,0.6211388,0.19739074,-0.04375176,-0.7320102,0.0980344,0.0,0.0,0,0.593839
-0.37810016,0.6200076,0.19738871,-0.04807326,-0.7271085,0.09803424,0.0,0.0,0,0.593275
-0.37608916,0.61877936,0.19738671,-0.052394766,-0.7222068,0.09803407,0.0,0.0,0,0.592886
-0.37407795,0.617454,0.19738472,-0.05671628,-0.71730506,0.09803391,0.0,0.0,0,0.592620
-0.3720666,0.6160319,0.19738273,-0.061037794,-0.71240336,0.09803373,0.0,0.0,0,0.592543
-0.3700551,0.61451286,0.19738075,-0.065359324,-0.7075017,0.09803353,0.0,0.0,0,0.592654
-0.3680435,0.6128966,0.19737878,-0.069680855,-0.70260006,0.09803336,0.0,0.0,0,0.592921
-0.3660318,0.6111836,0.19737685,-0.0740024,-0.6976984,0.09803319,0.0,0.0,0,0.593380
-0.36401987,0.6093736,0.19737491,-0.078323945,-0.69279677,0.098033026,0.0,0.0,0,0.594031
-0.36200786,0.60746664,0.19737297,-0.08264549,-0.6878951,0.09803285,0.0,0.0,0,0.594860
-0.3599957,0.60546273,0.19737104,-0.086967036,-0.6829935,0.0980327,0.0,0.0,0,0.595868
-0.35798344,0.6033619,0.19736913,-0.091288604,-0.6780918,0.09803253,0.0,0.0,0,0.597077
-0.355971,0.60116416,0.19736722,-0.09561018,-0.67319024,0.098032355,0.0,0.0,0,0.598483
-0.35395843,0.5988693,0.19736533,-0.09993176,-0.66828865,0.09803218,0.0,0.0,0,0.600059
-0.35194573,0.5964777,0.19736347,-0.10425334,-0.66338706,0.09803202,0.0,0.0,0,0.601840
-0.3499329,0.593989,0.1973616,-0.10857492,-0.6584855,0.09803186,0.0,0.0,0,0.603797
-0.34792,0.5914034,0.19735974,-0.11289652,-0.6535839,0.0980317,0.0,0.0,1,1.477547
-0.3459536,0.5887895,0.19119549,-0.11340849,-0.64682716,0.13513449,0.0,0.0,1,1.798070
-0.34404373,0.5861509,0.18380293,-0.113685735,-0.6379685,0.17717412,0.0,0.0,1,2.033456
-0.34219503,0.5834828,0.17589581,-0.11419084,-0.6269795,0.21978004,0.0,0.0,0,1.192826
-0.34034568,0.5807189,0.17588682,-0.11851902,-0.6159906,0.21977822,0.0,0.0,0,1.195009
-0.3384958,0.577859,0.17587797,-0.12284727,-0.60500175,0.21977639,0.0,0.0,0,1.197398
-0.33664522,0.57490325,0.17586927,-0.12717555,-0.59401304,0.21977457,0.0,0.0,0,1.199999
-0.33479404,0.5718516,0.1758607,-0.13150392,-0.5830244,0.2197727,0.0,0.0,0,1.202785
-0.3329423,0.5687041,0.17585227,-0.13583235,-0.57203585,0.21977091,0.0,0.0,0,1.205765
-0.33108997,0.5654608,0.17584398,-0.14016086,-0.5610474,0.21976909,0.0,0.0,0,1.208918
-0.32923713,0.5621217,0.17583583,-0.14448942,-0.550059,0.21976724,0.0,0.0,0,1.212268
-0.32738367,0.5586868,0.17582783,-0.14881803,-0.5390707,0.2197654,0.0,0.0,0,1.215785
-0.32552966,0.55515593,0.17581996,-0.1531467,-0.52808255,0.21976356,0.0,0.0,0,1.219448
-0.32367516,0.55152935,0.17581224,-0.15747544,-0.5170945,0.21976173,0.0,0.0,0,1.223292
-0.3218201,0.5478069,0.17580466,-0.16180421,-0.5061065,0.21975991,0.0,0.0,0,1.227278
-0.31996456,0.54398876,0.17579724,-0.16613303,-0.4951186,0.21975806,0.0,0.0,0,1.231416
-0.31810847,0.54007477,0.17578994,-0.17046192,-0.48413077,0.21975622,0.0,0.0,0,1.235676
-0.3162519,0.53606504,0.17578281,-0.17479087,-0.47314304,0.21975438,0.0,0.0,0,1.240088
-0.3143948,0.5319595,0.17577583,-0.17911986,-0.4621554,0.21975258,0.0,0.0,0,1.244608
-0.31253728,0.5277582,0.17576899,-0.18344888,-0.45116785,0.21975073,0.0,0.0,1,2.217220
-0.3107503,0.52350664,0.1667735,-0.18516468,-0.4381301,0.26075402,0.0,0.0,1,2.597059
-0.30904388,0.51922435,0.15638126,-0.18595332,-0.42264137,0.30977494,0.0,0.0,1,2.643728
-0.30741224,0.5148905,0.14683157,-0.18781969,-0.40502822,0.35226303,0.0,0.0,0,1.882286
-0.30577955,0.51046336,0.14681587,-0.19216351,-0.38741544,0.35225546,0.0,0.0,0,1.887220
-0.30414587,0.5059428,0.1468008,-0.19650753,-0.36980304,0.3522479,0.0,0.0,0,1.892248
-0.30251113,0.5013289,0.14678636,-0.20085172,-0.35219103,0.35224035,0.0,0.0,0,1.897361
-0.30087548,0.49662167,0.1467726,-0.20519608,-0.33457938,0.35223284,0.0,0.0,0,1.902548
-0.29923886,0.49182117,0.14675947,-0.20954059,-0.3169681,0.3522253,0.0,0.0,0,1.907804
-0.29760146,0.4869274,0.14674696,-0.21388525,-0.29935724,0.35221776,0.0,0.0,0,1.913130
-0.2959632,0.48194033,0.14673512,-0.21823004,-0.28174672,0.35221022,0.0,0.0,0,1.918507
-0.29432416,0.47686002,0.14672394,-0.22257496,-0.26413658,0.35220268,0.0,0.0,0,1.923935
-0.2926844,0.47168642,0.1467134,-0.22692002,-0.24652682,0.35219508,0.0,0.0,2,4.641973
-0.2909108,0.46752456,0.16025612,-0.18219261,-0.22915158,0.3475049,0.0,0.0,2,3.772811
-0.28909177,0.46410277,0.16510928,-0.1495586,-0.21215849,0.3398621,0.0,0.0,2,2.119387
-0.2869485,0.46187755,0.19684663,-0.096485116,-0.19454025,0.35236517,0.0,0.0,0,1.877811
-0.28480473,0.4595592,0.19683877,-0.10083062,-0.17692238,0.35235766,0.0,0.0,0,1.878821
-0.2826604,0.45714772,0.19683155,-0.10517621,-0.15930487,0.3523501,0.0,0.0,0,1.880014
-0.28051573,0.454643,0.19682503,-0.10952189,-0.14168777,0.35234252,0.0,0.0,0,1.881396
-0.27837062,0.45204535,0.19681916,-0.11386764,-0.12407102,0.35233498,0.0,0.0,0,1.882981
-0.27622518,0.4493545,0.19681399,-0.11821345,-0.10645464,0.35232744,0.0,0.0,0,1.884738
-0.2740795,0.44657058,0.1968095,-0.122559324,-0.088838644,0.35231993,0.0,0.0,0,1.886683
-0.27193356,0.4436936,0.1968057,-0.12690525,-0.07122303,0.3523124,0.0,0.0,0,1.888809
-0.26978746,0.44072357,0.19680259,-0.1312512,-0.053607784,0.35230488,0.0,0.0,0,1.891125
-0.26764116,0.43766034,0.19680014,-0.13559721,-0.03599293,0.3522973,0.0,0.0,0,1.893602
-0.26549476,0.43450406,0.19679841,-0.13994323,-0.018378448,0.35228974,0.0,0.0,0,1.896246
-0.2633484,0.43125474,0.19679734,-0.14428927,-0.00076433696,0.3522822,0.0,0.0,0,-1.470824
-0.261202,0.42791235,0.19679698,-0.14863531,0.016849402,0.35227466,0.0,0.0,0,-1.620642
-0.2590557,0.42447683,0.1967973,-0.15298134,0.03446276,0.35226712,0.0,0.0,0,-1.617437
-0.25690943,0.42094827,0.1967983,-0.15732738,0.052075736,0.3522596,0.0,0.0,0,-1.614097
-0.2547633,0.4173267,0.19679998,-0.1616734,0.069688335,0.35225207,0.0,0.0,0,-1.610610
-0.25261745,0.4136121,0.19680238,-0.1660194,0.08730057,0.3522445,0.0,0.0,0,-1.606971
-0.25047183,0.40980434,0.19680545,-0.17036535,0.10491242,0.35223693,0.0,0.0,3,-2.062018
-0.24826236,0.40590486,0.20482978,-0.17451803,0.12091893,0.3201301,0.0,0.0,3,-1.881042
-0.24598356,0.40192983,0.21358904,-0.17788625,0.1351401,0.28442365,0.0,0.0,3,-1.640215
-0.24364161,0.3978822,0.22157724,-0.18108653,0.14771861,0.2515702,0.0,0.0,0,-1.058626
-0.24129991,0.39373943,0.2215801,-0.18541966,0.16029698,0.25156742,0.0,0.0,0,-1.054359
-0.2389584,0.3895016,0.22158316,-0.1897528,0.17287523,0.25156468,0.0,0.0,0,-1.049992
-0.23661718,0.38516867,0.22158647,-0.19408591,0.18545333,0.25156194,0.0,0.0,3,-1.614453
-0.23418474,0.3807642,0.23307207,-0.19706167,0.19567674,0.20446844,0.0,0.0,3,-1.393779
-0.23165742,0.37628976,0.24501877,-0.19990195,0.20344445,0.15535422,0.0,0.0,3,-1.124050
-0.22903585,0.3717506,0.25689685,-0.20247366,0.20874883,0.106088,0.0,0.0,0,-0.267592
-0.22641435,0.3671146,0.2568976,-0.20679598,0.21405323,0.10608779,0.0,0.0,0,-0.262803
-0.22379294,0.36238176,0.25689834,-0.2111183,0.21935762,0.10608758,0.0,0.0,0,-0.257939
-0.22117153,0.35755214,0.25689912,-0.2154406,0.22466198,0.10608739,0.0,0.0,0,-0.253003
-0.21855016,0.35262567,0.2568999,-0.2197629,0.22996633,0.10608717,0.0,0.0,3,-0.821537
-0.21583657,0.34762767,0.26847857,-0.22258598,0.2328841,0.058355547,0.0,0.0,3,-0.543579
-0.21302924,0.34257418,0.28032696,-0.22466311,0.23329738,0.008265737,0.0,0.0,0,0.272571
-0.21022186,0.33742347,0.28032696,-0.22898313,0.23371066,0.00826566,0.0,0.0,0,0.277685
-0.20741454,0.33217564,0.280327,-0.23330313,0.23412395,0.008265815,0.0,0.0,0,0.282869
-0.2046072,0.32683054,0.280327,-0.23762314,0.23453723,0.00826581,0.0,0.0,0,0.288093
-0.20179982,0.32138824,0.280327,-0.24194315,0.23495051,0.008265685,0.0,0.0,0,0.293353
-0.19899245,0.3158488,0.28032702,-0.24626318,0.23536378,0.008265523,0.0,0.0,0,0.298659
-0.19618511,0.31021208,0.28032702,-0.2505832,0.23577705,0.008265361,0.0,0.0,0,0.303985
-0.19337788,0.30447823,0.28032705,-0.2549032,0.2361903,0.008265199,0.0,0.0,0,0.309350
-0.19057055,0.29864717,0.28032708,-0.25922322,0.23660356,0.008265062,0.0,0.0,3,-0.002379
-0.18770275,0.29274976,0.28797865,-0.26191399,0.2353827,-0.024416972,0.0,0.0,3,-0.000870
-0.18475494,0.28677285,0.2980023,-0.26512632,0.23211245,-0.065405,0.0,0.0,3,0.150850
-0.18171625,0.28072107,0.30940142,-0.26810598,0.2265043,-0.11216311,0.0,0.0,0,0.957550
-0.17867765,0.27457252,0.30940235,-0.27242857,0.22089617,-0.11216285,0.0,0.0,0,0.962897
-0.17563915,0.2683272,0.30940324,-0.27675113,0.21528804,-0.112162605,0.0,0.0,0,0.968239
-0.17260066,0.2619851,0.30940408,-0.2810737,0.20967993,-0.11216235,0.0,0.0,0,0.973567
-0.16956225,0.25554615,0.30940494,-0.28539625,0.20407182,-0.1121621,0.0,0.0,0,0.978875
-0.16652384,0.24901043,0.30940574,-0.2897188,0.19846371,-0.11216185,0.0,0.0,0,0.984139
-0.16348544,0.24237794,0.30940652,-0.29404137,0.19285561,-0.112161614,0.0,0.0,0,0.989344
-0.16044712,0.23564866,0.3094073,-0.29836398,0.18724754,-0.11216138,0.0,0.0,0,0.994490
-0.15740891,0.22882262,0.30940807,-0.30268657,0.18163949,-0.11216114,0.0,0.0,0,0.999563
-0.1543707,0.22189973,0.3094088,-0.30700916,0.17603146,-0.11216086,0.0,0.0,0,1.004525
-0.15133257,0.21488006,0.30940953,-0.31133172,0.17042343,-0.11216061,0.0,0.0,0,1.009368
-0.14829445,0.20776363,0.30941018,-0.31565428,0.1648154,-0.1121604,0.0,0.0,0,1.014040
-0.14525643,0.20055042,0.30941087,-0.3199769,0.15920739,-0.11216013,0.0,0.0,0,1.018542
-0.1422184,0.19324043,0.30941147,-0.32429948,0.15359941,-0.112159885,0.0,0.0,0,1.022823
-0.13918047,0.1858336,0.30941206,-0.32862204,0.14799143,-0.112159625,0.0,0.0,0,1.026822
-0.13614264,0.17833,0.30941266,-0.33294466,0.14238347,-0.11215936,0.0,0.0,0,1.030500
-0.1331048,0.1707297,0.30941325,-0.33726728,0.13677554,-0.11215911,0.0,0.0,0,1.033817
-0.13006696,0.16303247,0.3094138,-0.34158987,0.1311676,-0.11215885,0.0,0.0,0,1.036642
-0.12702923,0.15523854,0.30941433,-0.34591246,0.12555969,-0.1121586,0.0,0.0,0,1.038924
-0.12399149,0.14734784,0.30941483,-0.35023507,0.11995177,-0.11215834,0.0,0.0,0,1.040529
-0.12095375,0.13936037,0.30941534,-0.3545577,0.11434386,-0.112158075,0.0,0.0,2,4.400292
-0.11801024,0.13221581,0.3001047,-0.31710517,0.108633846,-0.11420043,0.0,0.0,2,4.706637
-0.1150341,0.12639657,0.30273524,-0.25826707,0.10354872,-0.10170261,0.0,0.0,2,1.673938
-0.11200676,0.12103208,0.3074464,-0.23810475,0.09887498,-0.09347483,0.0,0.0,0,0.806997
-0.10897942,0.115570605,0.30744666,-0.2424266,0.09420125,-0.09347464,0.0,0.0,0,0.809529
-0.10595207,0.11001228,0.30744693,-0.24674842,0.08952753,-0.093474515,0.0,0.0,0,0.811703
-0.102924824,0.104357034,0.30744717,-0.25107026,0.08485382,-0.09347434,0.0,0.0,0,0.813440
-0.09989758,0.09860488,0.3074474,-0.25539207,0.08018009,-0.09347421,0.0,0.0,0,0.814614
-0.096870326,0.0927558,0.30744764,-0.25971392,0.0755064,-0.093474075,0.0,0.0,2,4.988621
-0.094055176,0.08784428,0.28698373,-0.21802177,0.07009509,-0.108226314,0.0,0.0,0,0.824346
-0.09124012,0.08283606,0.28698403,-0.2223442,0.06468379,-0.10822608,0.0,0.0,0,0.824854
-0.088424966,0.077731,0.28698426,-0.22666666,0.059272505,-0.1082259,0.0,0.0,0,0.824651
-0.085609816,0.072529085,0.28698447,-0.23098911,0.05386122,-0.10822568,0.0,0.0,0,0.823554
-0.08279467,0.06723033,0.28698468,-0.23531155,0.048449937,-0.10822548,0.0,0.0,0,0.821325
-0.07997952,0.061834797,0.28698486,-0.23963402,0.04303867,-0.10822526,0.0,0.0,0,0.817649
-0.077164456,0.056342494,0.286985,-0.24395649,0.037627403,-0.108225085,0.0,0.0,0,0.812151
-0.07434931,0.05075334,0.2869852,-0.24827893,0.032216158,-0.10822485,0.0,0.0,0,0.804269
-0.07153425,0.045067344,0.2869853,-0.2526014,0.026804924,-0.108224615,0.0,0.0,0,0.793313
-0.06871919,0.039284572,0.28698543,-0.25692385,0.021393687,-0.108224355,0.0,0.0,0,0.778359
-0.06590404,0.03340503,0.2869855,-0.26124632,0.015982477,-0.10822413,0.0,0.0,2,2.505970
-0.06292772,0.028627906,0.30230147,-0.21227184,0.011375974,-0.09213003,0.0,0.0,2,3.926519
-0.06000471,0.025098262,0.29716656,-0.15684417,0.006569545,-0.09612862,0.0,0.0,0,0.682301
-0.057081796,0.021471772,0.2971666,-0.1611661,0.001763123,-0.09612848,0.0,0.0,0,0.063201
-0.054158784,0.017748294,0.2971666,-0.16548805,-0.0030432872,-0.09612833,0.0,0.0,0,-0.303247
-0.051235866,0.01392797,0.29716662,-0.16981,-0.007849696,-0.09612815,0.0,0.0,0,-0.321500
-0.048312854,0.010010729,0.29716662,-0.17413193,-0.012656088,-0.09612797,0.0,0.0,0,-0.345672
-0.04538994,0.005996642,0.2971666,-0.17845388,-0.017462479,-0.09612782,0.0,0.0,0,-0.377547
-0.042466927,0.0018856382,0.29716653,-0.1827758,-0.02226887,-0.09612766,0.0,0.0,0,13.901721
-0.039453886,-0.0016216898,0.28723243,-0.15572318,-0.008420404,0.27692595,1.0,0.0,0,13.478629
-0.03654089,-0.0040597823,0.27791202,-0.10833239,0.0048050447,0.2645094,1.0,1.0,0,1.382103
-0.033739187,-0.0054474496,0.2674135,-0.06176524,0.017399816,0.2518956,1.0,1.0,0,0.818654
-0.031054784,-0.005825713,0.2573016,-0.016980385,0.02838548,0.21970801,1.0,1.0,0,0.437286
-0.028504753,-0.005276039,0.24798211,0.024284303,0.03531314,0.13854131,1.0,1.0,0,1.125950
-0.026138019,-0.004326537,0.24373977,0.042355087,0.028324757,-0.13977367,1.0,1.0,0,1.288873
-0.023839379,-0.0030177617,0.23958798,0.058330853,0.018706078,-0.19238333,1.0,1.0,0,1.315341
-0.021555614,-0.0016788745,0.23840189,0.059611976,0.008806029,-0.19801107,1.0,1.0,0,1.171530
-0.019257355,-0.00046093704,0.23893604,0.054155577,-0.00019414391,-0.18000866,1.0,1.0,0,-10.555153
-0.016957473,0.00066748617,0.23886637,0.050124563,-0.008965507,-0.17543213,1.0,0.0,1,0.832169
-0.014754677,0.001692698,0.22670546,0.045511954,-0.015303167,-0.12675649,1.0,0.0,1,0.538034
-0.012606049,0.0026150919,0.21932602,0.040945422,-0.019713238,-0.08820147,1.0,0.0,1,-8.812478
-0.010552788,0.0034552312,0.20736942,0.037312135,-0.021724204,-0.04021912,0.0,0.0,0,0.033538
-0.008499431,0.0041982387,0.20736942,0.032991793,-0.023735145,-0.04021901,0.0,0.0,0,0.004077
-0.0064461706,0.004844079,0.2073694,0.028671453,-0.025746083,-0.040218793,0.0,0.0,0,-0.035520
-0.004392815,0.0053927875,0.2073694,0.024351114,-0.02775702,-0.04021863,0.0,0.0,1,1.214778
-0.002429104,0.0058583114,0.19611919,0.020696314,-0.027508851,0.0049634366,0.0,0.0,1,1.408272
-0.00055646896,0.0062356447,0.18468477,0.016815593,-0.024967136,0.050834633,0.0,0.0,0,0.249638
0.0013161659,0.006515918,0.18468475,0.012495049,-0.022425426,0.05083435,0.0,0.0,0,0.201139
0.0031888008,0.0066989874,0.18468474,0.008174505,-0.019883718,0.050834257,0.0,0.0,0,0.163671
0.0050614355,0.006784961,0.18468472,0.0038539616,-0.017342012,0.05083423,0.0,0.0,1,1.410222
0.006847763,0.0067650056,0.17386529,-0.0008401646,-0.0126363905,0.09411233,0.0,0.0,1,1.637218
0.0085460665,0.0066483114,0.16282809,-0.005143157,-0.005720576,0.13831648,0.0,0.0,1,1.164340
0.0101566315,0.006443856,0.15181239,-0.009079214,0.003402041,0.18245216,0.0,0.0,0,-1.068805
0.0117671965,0.006143341,0.15181234,-0.013406222,0.012524588,0.18245111,0.0,0.0,0,-1.084953
0.0133777615,0.0057467315,0.15181243,-0.017733227,0.021647083,0.18245007,0.0,0.0,0,-1.100751
0.014988327,0.005253992,0.1518126,-0.022060236,0.030769527,0.18244903,0.0,0.0,1,-0.288404
0.016511153,0.004651496,0.14081356,-0.027048893,0.042101335,0.22663602,0.0,0.0,1,11.531149
0.017772008,0.0043932176,0.12818645,-0.011422625,0.0400303,-0.041420784,0.0,1.0,1,0.968133
0.01894102,0.0040993546,0.11928682,-0.012999598,0.037677687,-0.04705228,0.0,1.0,1,1.080472
0.020010281,0.0037725545,0.10956645,-0.014461132,0.035066128,-0.052231092,0.0,1.0,0,0.184037
0.021072293,0.0033667183,0.109471954,-0.017962499,0.031829827,-0.06472607,0.0,1.0,0,0.235297
0.022126961,0.0028818822,0.10937841,-0.02147096,0.02797253,-0.07714604,0.0,1.0,0,0.285719
0.023174476,0.0023179387,0.10928595,-0.024987819,0.023498693,-0.08947685,0.0,1.0,0,0.335243
0.024214935,0.0016747451,0.1091948,-0.028514314,0.018413423,-0.10170529,0.0,1.0,0,0.383844
0.02524824,0.00095219375,0.10910505,-0.032051545,0.012722494,-0.11381886,0.0,1.0,1,1.418543
0.02617588,0.00020067453,0.09872973,-0.033363782,0.006827407,-0.11790152,0.0,1.0,1,1.222282
0.02701826,-0.000586679,0.09046672,-0.034978706,0.00067780254,-0.12299206,0.0,1.0,1,12.669926
0.027711296,-0.00059247256,0.069303975,-0.00025591216,0.0006745896,-6.235686e-05,1.0,1.0,1,1.116779
0.028283883,-0.00058710814,0.05726083,0.00023769046,0.00067758415,5.7889993e-05,1.0,1.0,0,0.030356
0.02884779,-0.00058696506,0.056393884,6.851761e-06,0.00067767635,1.663497e-06,1.0,1.0,0,0.035997
0.029402543,-0.00058696506,0.0554793,-1.5170264e-06,0.0006776566,-3.6953998e-07,1.0,1.0,0,0.037110
0.02994814,-0.00058696506,0.05456271,-6.715948e-08,0.00067765533,-1.5482822e-08,1.0,1.0,0,0.038025
0.030484581,-0.00058696506,0.053646117,1.002625e-08,0.0006776558,4.1352153e-09,1.0,1.0,0,0.038923
0.031011868,-0.00058696506,0.052729696,6.148987e-09,0.00067765603,-2.1110072e-10,1.0,1.0,0,0.039837
0.03153,-0.00058696506,0.051813286,4.1783323e-09,0.0006776561,-2.9501366e-09,1.0,1.0,0,0.040752
0.032038976,-0.00058696506,0.050896876,2.198661e-09,0.00067765627,-6.276376e-10,1.0,1.0,0,0.041667
0.032538794,-0.00058696506,0.04998047,2.4123187e-10,0.0006776565,1.5291426e-10,1.0,1.0,0,0.042582
0.03302946,-0.00058696506,0.04906406,-1.802567e-09,0.0006776575,5.436741e-10,1.0,1.0,0,0.043497
0.03351097,-0.00058696506,0.04814765,-2.7308122e-09,0.00067765755,-3.7455274e-09,1.0,1.0,0,0.044413
0.033983327,-0.00058696506,0.04723124,-3.719155e-09,0.0006776576,-2.9996226e-09,1.0,1.0,0,0.045337
0.03444643,-0.00058696506,0.046314828,-4.7106443e-09,0.0006776578,-1.0594704e-09,1.0,1.0,0,0.046253
0.03490038,-0.00058696506,0.04539842,-5.4752407e-09,0.00067765795,-1.4149837e-09,1.0,1.0,0,0.047168
0.035345174,-0.00058696506,0.04448201,-6.1856174e-09,0.0006776582,-4.5186016e-10,1.0,1.0,0,0.048083
0.03578081,-0.00058696506,0.0435656,-6.6547683e-09,0.0006776584,3.4121794e-10,1.0,1.0,0,0.048999
0.036207296,-0.00058696506,0.042649187,-6.708967e-09,0.00067765865,2.1235638e-10,1.0,1.0,0,0.049914
0.03662462,-0.00058696506,0.041732777,-6.708972e-09,0.00067765964,3.5092707e-11,1.0,1.0,0,0.050829
0.037032794,-0.00058696506,0.040816363,-5.6985887e-09,0.0006776598,-8.102813e-12,1.0,1.0,0,0.051744
0.037431814,-0.00058696506,0.039899953,-4.456081e-09,0.0006776601,1.9222615e-09,1.0,1.0,0,0.052660
0.037821673,-0.00058696506,0.03898354,-2.3479174e-09,0.0006776605,4.1970822e-09,1.0,1.0,0,0.053575
0.038202383,-0.00058696506,0.038067125,-4.6913995e-10,0.00067766075,1.5707629e-09,1.0,1.0,0,0.054490
0.038573932,-0.00058696506,0.037150715,1.447379e-09,0.0006776609,-3.7476786e-11,1.0,1.0,0,0.055415
0.038936235,-0.00058696506,0.0362343,3.3772096e-09,0.00067766104,-7.8374357e-10,1.0,1.0,0,0.056331
0.039289378,-0.00058696506,0.03531789,5.4210028e-09,0.00067766116,-1.2346095e-09,1.0,1.0,0,0.057246
0.03963337,-0.00058696506,0.034401476,6.749874e-09,0.000677662,2.1844951e-11,1.0,1.0,0,0.058161
0.039968204,-0.00058696506,0.033485062,6.34009e-09,0.0006776622,3.5000364e-10,1.0,1.0,0,0.059076
0.040293884,-0.00058696506,0.032568656,5.2339755e-09,0.0006776623,-8.999085e-10,1.0,1.0,0,0.059992
0.04061041,-0.00058696506,0.031652246,3.7866075e-09,0.0006776625,-4.715636e-10,1.0,1.0,0,0.060907
0.040917777,-0.00058696506,0.030735835,2.439902e-09,0.00067766267,2.6331234e-10,1.0,1.0,0,0.061823
0.041215993,-0.00058696506,0.029819425,9.649195e-10,0.00067766284,3.751308e-12,1.0,1.0,0,0.062738
0.04150505,-0.00058696506,0.028903017,-5.96419e-10,0.000677663,4.538901e-10,1.0,1.0,0,0.063653
0.041784953,-0.00058696506,0.027986607,-2.0437971e-09,0.0006776632,4.5381796e-10,1.0,1.0,0,0.064569
0.042055704,-0.00058696506,0.027070198,-3.4911796e-09,0.00067766407,4.5462278e-10,1.0,1.0,0,0.065494
0.0423172,-0.00058696506,0.026153788,-4.738238e-09,0.00067766424,-4.5706475e-10,1.0,1.0,0,0.066409
0.04256954,-0.00058696506,0.025237378,-6.1856205e-09,0.0006776644,-5.106016e-10,1.0,1.0,1,1.165196
0.042701054,-0.0005870366,0.013153942,-2.0595849e-06,0.00067763653,-5.0401667e-07,1.0,1.0,1,0.838818
0.042745303,-0.00058696506,0.004421487,2.249436e-06,0.0006776672,5.503906e-07,1.0,1.0,1,0.099160
0.042713642,-0.00058660744,-0.0031618807,1.6127082e-05,0.00067730114,-7.254251e-06,1.0,1.0,0,0.093433
0.042691134,-0.0005867505,-0.0022499845,-4.806685e-06,0.0006774091,2.2084653e-06,1.0,1.0,0,0.093075
0.042677782,-0.0005867505,-0.0013325831,-1.7437098e-07,0.0006774145,8.083978e-08,1.0,1.0,0,0.092065
0.042673588,-0.0005867505,-0.0004161282,3.1009698e-08,0.0006774144,-1.3182003e-08,1.0,1.0,0,0.025313
0.04267521,-0.0005867505,0.00016383929,1.6435722e-07,0.0006749512,-4.7973626e-05,1.0,1.0,0,-0.007824
0.042677592,-0.0005867505,0.00024336964,2.4230542e-07,0.00067127356,-7.12627e-05,1.0,1.0,0,0.013836
0.042678643,-0.0005867505,0.000105539824,1.05232026e-07,0.0006696993,-3.0903433e-05,1.0,1.0,0,0.009492
0.042678546,-0.0005867505,-1.0553439e-05,-1.0306544e-08,0.0006698571,3.0888223e-06,1.0,1.0,0,-0.003108
0.042678166,-0.0005867505,-4.139338e-05,-4.1130566e-08,0.0006704737,1.2117127e-05,1.0,1.0,0,0.001763
0.042677976,-0.0005867505,-2.3608787e-05,-2.3222283e-08,0.000670815,6.9131775e-06,1.0,1.0,0,0.002168
0.042677976,-0.0005867505,-1.9040496e-06,-1.8761388e-09,0.0006708421,5.6238e-07,1.0,1.0,0,-0.000456
0.04267807,-0.0005867505,6.4713095e-06,6.3613337e-09,0.0006707356,-1.8942217e-06,1.0,1.0,0,0.000160
0.042678166,-0.0005867505,4.8529932e-06,5.1829137e-09,0.000670655,-1.4223065e-06,1.0,1.0,0,0.000380
0.042678166,-0.0005867505,1.0578959e-06,1.0006499e-09,0.0006706492,-3.1200383e-07,1.0,1.0,0,0.000017
0.042678166,-0.0005867505,-8.960601e-07,-8.833763e-10,0.0006706459,2.7314258e-07,1.0,1.0,0,-0.000006
0.042678166,-0.0005867505,-9.3199486e-07,-9.289966e-10,0.000670672,2.825243e-07,1.0,1.0,0,0.000062
0.042678166,-0.0005867505,-3.1906214e-07,-3.2844305e-10,0.0006706661,1.0341735e-07,1.0,1.0,0,0.000022
0.042678166,-0.0005867505,9.879834e-08,1.8804457e-10,0.00067066826,-3.3134693e-08,1.0,1.0,0,-0.000007
0.042678166,-0.0005867505,1.7071936e-07,3.314281e-10,0.00067066145,-4.9763354e-08,1.0,1.0,0,0.000010
0.042678166,-0.0005867505,7.9859625e-08,1.3043056e-11,0.00067065714,-1.33983225e-08,1.0,1.0,0,0.000007
0.042678166,-0.0005867505,-9.18965e-09,-9.512851e-11,0.000670654,2.362516e-08,1.0,1.0,0,-0.000002
0.042678166,-0.0005867505,-3.2953466e-08,-7.1326806e-11,0.0006706514,2.0097001e-08,1.0,1.0,0,0.000001
0.042678166,-0.0005867505,-2.1324157e-08,2.6095537e-11,0.0006706488,2.1177101e-08,1.0,1.0,0,0.000002
0.042678166,-0.0005867505,-9.399514e-09,4.0871903e-11,0.0006706457,2.4198323e-08,1.0,1.0,0,0.000001
0.042678166,-0.0005867505,1.2322118e-10,2.0032773e-10,0.0006706414,1.4587326e-09,1.0,1.0,0,-0.000000
0.042678166,-0.0005867505,9.213013e-09,5.4228212e-11,0.0006706359,-2.3720686e-08,1.0,1.0,0,100
-0.003815937,1.4099143,-0.38652307,-0.044715717,0.0044284468,0.087553255,0.0,0.0,0,-0.313842
-0.00763216,1.4088337,-0.3860004,-0.048037507,0.008754797,0.08653562,0.0,0.0,0,-0.374307
-0.011448669,1.4076564,-0.38601413,-0.05235723,0.013078626,0.08648435,0.0,0.0,0,-0.370277
-0.015265274,1.4063821,-0.38602692,-0.05668326,0.017401911,0.08647357,0.0,0.0,0,-0.366212
-0.01908188,1.4050107,-0.38603967,-0.06100625,0.021724517,0.08646004,0.0,0.0,0,-0.362153
-0.022898769,1.4035425,-0.38605246,-0.06532918,0.026046444,0.0864463,0.0,0.0,0,-0.358069
-0.02671585,1.4019772,-0.38606519,-0.06965215,0.030367702,0.08643284,0.0,0.0,0,-0.353968
-0.030532932,1.4003149,-0.38607788,-0.073975205,0.034688264,0.08641926,0.0,0.0,0,-0.349844
-0.034350205,1.3985558,-0.38609055,-0.07829837,0.039008167,0.08640574,0.0,0.0,0,-0.345681
-0.038167667,1.3966993,-0.38610315,-0.08262162,0.043327402,0.0863923,0.0,0.0,0,-0.341522
-0.041985225,1.3947461,-0.38611573,-0.08694496,0.04764596,0.0863789,0.0,0.0,0,-0.337316
-0.045802783,1.3926959,-0.3861282,-0.09126839,0.05196383,0.08636557,0.0,0.0,0,-0.333098
-0.049620725,1.3905487,-0.38614064,-0.09559191,0.05628105,0.08635226,0.0,0.0,0,-0.328846
-0.053438663,1.3883045,-0.386153,-0.09991552,0.060597613,0.08633901,0.0,0.0,0,-0.324553
-0.0572567,1.3859632,-0.38616532,-0.10423922,0.064913504,0.08632578,0.0,0.0,0,-0.320262
-0.06107502,1.383525,-0.3861776,-0.108563,0.06922874,0.086312614,0.0,0.0,0,-0.315917
-0.06489344,1.3809898,-0.3861898,-0.11288688,0.07354333,0.086299494,0.0,0.0,0,-0.311555
-0.06871195,1.3783574,-0.38620195,-0.11721084,0.07785727,0.086286455,0.0,0.0,0,-0.307148
-0.07253055,1.375628,-0.38621405,-0.12153489,0.082170546,0.08627345,0.0,0.0,0,-0.302745
-0.076349355,1.3728018,-0.3862261,-0.125859,0.08648319,0.08626045,0.0,0.0,0,-0.298279
-0.080168344,1.3698784,-0.38623804,-0.13018323,0.090795174,0.086247556,0.0,0.0,0,-0.293815
-0.08398743,1.3668581,-0.38624996,-0.13450752,0.09510653,0.086234674,0.0,0.0,0,-0.289291
-0.087806605,1.3637408,-0.3862618,-0.13883191,0.099417225,0.086221874,0.0,0.0,0,-0.284755
-0.09162607,1.3605264,-0.38627356,-0.14315636,0.10372731,0.0862091,0.0,0.0,0,-0.280174
-0.09544563,1.3572149,-0.3862853,-0.14748093,0.10803675,0.08619635,0.0,0.0,0,-0.293747
-0.09926367,1.3537852,-0.38614097,-0.15275364,0.11234602,0.08618559,0.0,0.0,0,-0.268623
-0.1030817,1.3502585,-0.38614073,-0.1570752,0.1166553,0.08618549,0.0,0.0,0,-0.264009
-0.10689974,1.3466347,-0.3861405,-0.16139674,0.12096456,0.08618538,0.0,0.0,0,-0.259394
-0.11071787,1.3429141,-0.38614023,-0.1657183,0.12527381,0.08618517,0.0,0.0,0,-0.254735
-0.114536,1.3390965,-0.38613993,-0.17003983,0.12958306,0.08618502,0.0,0.0,0,-0.250052
-0.11835413,1.335182,-0.38613966,-0.1743614,0.13389231,0.08618481,0.0,0.0,0,-0.245366
-0.122172356,1.3311706,-0.38613933,-0.17868294,0.13820156,0.086184666,0.0,0.0,0,-0.240609
-0.12599058,1.3270621,-0.38613904,-0.18300447,0.14251079,0.08618456,0.0,0.0,0,-0.235842
-0.12980881,1.3228568,-0.38613874,-0.18732601,0.14682001,0.08618442,0.0,0.0,0,-0.231044
-0.13362703,1.3185544,-0.38613838,-0.19164754,0.15112923,0.086184315,0.0,0.0,0,-0.226225
-0.13744526,1.314155,-0.38613802,-0.19596909,0.15543844,0.08618421,0.0,0.0,0,-0.221396
-0.14126348,1.3096588,-0.38613766,-0.20029062,0.15974765,0.086184084,0.0,0.0,0,-0.216526
-0.1450818,1.3050655,-0.38613728,-0.20461217,0.16405682,0.08618397,0.0,0.0,0,-0.211651
-0.14890003,1.3003755,-0.3861369,-0.20893368,0.16836601,0.08618386,0.0,0.0,0,-0.206727
-0.15271835,1.2955883,-0.3861365,-0.21325521,0.1726752,0.086183734,0.0,0.0,0,-0.201806
-0.15653667,1.2907041,-0.3861361,-0.21757676,0.17698438,0.08618363,0.0,0.0,0,-0.196854
-0.16035509,1.2857231,-0.38613567,-0.2218983,0.18129356,0.08618355,0.0,0.0,0,-0.191886
-0.16417351,1.2806451,-0.38613528,-0.22621983,0.18560274,0.086183436,0.0,0.0,0,-0.186909
-0.16799192,1.2754703,-0.38613483,-0.23054136,0.18991189,0.08618333,0.0,0.0,0,-0.181895
-0.17181043,1.2701982,-0.38613442,-0.23486288,0.19422105,0.08618322,0.0,0.0,0,-0.176888
-0.17562895,1.2648294,-0.38613397,-0.23918441,0.19853018,0.08618311,0.0,0.0,0,-0.171876
-0.17944746,1.2593637,-0.38613352,-0.24350594,0.20283933,0.08618301,0.0,0.0,0,-0.166818
-0.18326607,1.2538009,-0.38613304,-0.24782747,0.20714848,0.086182885,0.0,0.0,0,-0.161767
-0.18708467,1.248141,-0.3861326,-0.252149,0.21145761,0.08618276,0.0,0.0,0,-0.156719
-0.19090338,1.2423843,-0.3861321,-0.25647053,0.21576673,0.08618263,0.0,0.0,0,-0.151654
-0.19472209,1.2365307,-0.38613158,-0.26079205,0.22007586,0.08618252,0.0,0.0,0,-0.146580
-0.19854078,1.2305801,-0.38613108,-0.26511353,0.22438498,0.08618239,0.0,0.0,0,-0.141524
-0.20235959,1.2245326,-0.38613057,-0.26943505,0.2286941,0.08618231,0.0,0.0,0,-0.136431
-0.20617838,1.218388,-0.38613003,-0.27375653,0.2330032,0.08618217,0.0,0.0,0,-0.131372
-0.20999718,1.2121465,-0.38612953,-0.27807802,0.2373123,0.08618207,0.0,0.0,0,-0.126305
-0.21381608,1.205808,-0.386129,-0.28239954,0.2416214,0.086182036,0.0,0.0,0,-0.121239
-0.217635,1.1993725,-0.38612846,-0.28672105,0.24593051,0.08618195,0.0,0.0,0,-0.116182
-0.22145395,1.1928401,-0.3861279,-0.29104254,0.2502396,0.086181834,0.0,0.0,0,-0.111142
-0.22527298,1.1862109,-0.38612732,-0.29536402,0.25454867,0.086181745,0.0,0.0,0,-0.106110
-0.22909203,1.1794846,-0.38612673,-0.2996855,0.2588578,0.08618161,0.0,0.0,0,-0.101083
-0.23291115,1.1726613,-0.38612613,-0.30400696,0.26316684,0.08618147,0.0,0.0,0,-0.096080
-0.23673025,1.1657411,-0.38612553,-0.30832845,0.2674759,0.086181365,0.0,0.0,0,-0.091096
-0.24054942,1.1587238,-0.3861249,-0.3126499,0.27178496,0.086181246,0.0,0.0,0,-0.086145
-0.2443686,1.1516098,-0.3861243,-0.3169714,0.276094,0.08618117,0.0,0.0,0,-0.081217
-0.24818787,1.1443987,-0.3861237,-0.32129288,0.28040308,0.08618106,0.0,0.0,0,-0.076295
-0.2520072,1.1370906,-0.38612306,-0.32561436,0.28471217,0.08618091,0.0,0.0,0,-0.071443
-0.25582656,1.1296856,-0.3861224,-0.32993585,0.28902122,0.08618082,0.0,0.0,0,-0.066583
-0.259646,1.1221836,-0.38612175,-0.3342573,0.29333025,0.08618073,0.0,0.0,0,-0.061775
-0.2634654,1.1145846,-0.3861211,-0.3385788,0.29763925,0.08618061,0.0,0.0,0,-0.057024
-0.26728487,1.1068888,-0.38612038,-0.34290028,0.30194825,0.0861805,0.0,0.0,0,-0.052311
-0.27110443,1.0990958,-0.3861197,-0.34722176,0.30625728,0.08618039,0.0,0.0,0,-0.047637
-0.27492404,1.0912061,-0.38611898,-0.35154322,0.3105663,0.08618029,0.0,0.0,0,-0.043007
-0.27874368,1.083219,-0.3861183,-0.35586467,0.3148753,0.08618016,0.0,0.0,0,-0.038472
-0.2825634,1.0751354,-0.38611758,-0.36018613,0.31918433,0.08618005,0.0,0.0,0,-0.033974
-0.28638315,1.0669547,-0.38611686,-0.36450762,0.32349336,0.08617995,0.0,0.0,0,-0.029513
-0.29020295,1.058677,-0.38611612,-0.36882907,0.32780233,0.08617982,0.0,0.0,0,-0.025158
-0.2940228,1.0503023,-0.38611537,-0.3731505,0.3321113,0.08617972,0.0,0.0,0,-0.020874
-0.29784268,1.0418308,-0.3861146,-0.37747195,0.33642024,0.08617963,0.0,0.0,0,-0.016645
-0.30166262,1.0332621,-0.38611382,-0.38179344,0.34072918,0.08617951,0.0,0.0,0,-0.012515
-0.3054827,1.0245966,-0.38611302,-0.3861149,0.34503815,0.08617939,0.0,0.0,0,-0.008472
-0.30930275,1.015834,-0.38611227,-0.39043632,0.3493471,0.08617928,0.0,0.0,0,-0.004535
-0.3131229,1.0069745,-0.38611147,-0.39475778,0.35365608,0.086179174,0.0,0.0,0,-0.000663
-0.31694308,0.99801797,-0.38611066,-0.39907923,0.357965,0.08617906,0.0,0.0,0,0.003056
-0.3207633,0.9889647,-0.38610986,-0.40340063,0.3622739,0.08617897,0.0,0.0,0,0.006697
-0.32458362,0.97981423,-0.38610902,-0.4077221,0.36658284,0.08617884,0.0,0.0,0,0.010214
-0.328404,0.97056687,-0.3861082,-0.4120435,0.37089178,0.08617871,0.0,0.0,0,0.013599
-0.33222443,0.96122247,-0.38610733,-0.41636497,0.37520075,0.086178705,0.0,0.0,0,0.016859
-0.33604488,0.9517811,-0.38610646,-0.4206864,0.3795097,0.08617861,0.0,0.0,0,0.019967
-0.33986545,0.94224286,-0.3861056,-0.42500782,0.3838186,0.08617849,0.0,0.0,0,0.022955
-0.34368604,0.93260753,-0.38610473,-0.42932925,0.38812748,0.08617841,0.0,0.0,0,0.025751
-0.3475067,0.92287534,-0.38610384,-0.43365067,0.3924364,0.08617829,0.0,0.0,0,0.028400
-0.35132748,0.9130461,-0.38610297,-0.43797213,0.3967453,0.086178176,0.0,0.0,0,0.030885
-0.35514823,0.90312,-0.38610208,-0.44229355,0.40105417,0.08617805,0.0,0.0,0,0.033162
-0.35896906,0.8930969,-0.3861012,-0.44661495,0.4053631,0.08617795,0.0,0.0,0,0.035287
-0.36279002,0.8829768,-0.38610026,-0.45093638,0.40967196,0.08617784,0.0,0.0,0,0.037182
-0.366611,0.87275964,-0.38609934,-0.45525783,0.41398087,0.08617776,0.0,0.0,3,0.829427
-0.37036943,0.8624774,-0.37823564,-0.45769337,0.4165618,0.051619034,0.0,0.0,3,1.073919
-0.3740653,0.85214585,-0.37024853,-0.4593734,0.41727623,0.014288468,0.0,0.0,3,1.107220
-0.37770692,0.8417532,-0.3633631,-0.46166894,0.4164201,-0.017122602,0.0,0.0,3,1.301558
-0.38128972,0.83129853,-0.35593992,-0.46395603,0.41389388,-0.050524652,0.0,0.0,3,1.444933
-0.38482103,0.82079405,-0.3493032,-0.46575397,0.40976715,-0.08253471,0.0,0.0,3,1.756779
-0.388282,0.8102334,-0.3404129,-0.46772864,0.40365452,-0.122252464,0.0,0.0,3,1.964640
-0.3916711,0.7996179,-0.33130816,-0.4696666,0.39551166,-0.16285713,0.0,0.0,3,2.075919
-0.39499235,0.7889394,-0.32274622,-0.4720187,0.38550022,-0.20022853,0.0,0.0,3,2.332001
-0.3982398,0.7782031,-0.31340778,-0.47413903,0.37344345,-0.2411354,0.0,0.0,3,2.784337
-0.4013999,0.7674364,-0.30217704,-0.47498372,0.35881305,-0.29260814,0.0,0.0,3,2.967201
-0.40446645,0.756617,-0.29031044,-0.4768767,0.34163564,-0.343548,0.0,0.0,3,3.081591
-0.40745586,0.745752,-0.28038776,-0.4786086,0.322258,-0.38755327,0.0,0.0,3,3.010149
-0.41038457,0.73481655,-0.272615,-0.4816549,0.3012516,-0.42012882,0.0,0.0,3,3.170277
-0.4132526,0.72381365,-0.2648242,-0.48463187,0.27860472,-0.45293742,0.0,0.0,3,3.351869
-0.41605967,0.71274966,-0.25693458,-0.487379,0.25427535,-0.48658744,0.0,0.0,3,3.555135
-0.4187956,0.70161855,-0.24781421,-0.49046367,0.22806123,-0.52428275,0.0,0.0,3,3.846208
-0.42144698,0.6904238,-0.23699419,-0.49344337,0.1996225,-0.56877524,0.0,0.0,3,3.952376
-0.42402005,0.6791581,-0.2269766,-0.4968992,0.16915372,-0.6093759,0.0,0.0,3,4.054469
-0.42652288,0.66781926,-0.21796599,-0.5005823,0.13686714,-0.64573246,0.0,0.0,3,4.318183
-0.42895117,0.65642524,-0.20837721,-0.50359476,0.10261253,-0.6850927,0.0,0.0,3,4.356534
-0.43131,0.6449564,-0.19952068,-0.5076294,0.066585176,-0.72054815,0.0,0.0,0,4.014816
-0.4336695,0.6334075,-0.19950661,-0.5120577,0.030561017,-0.7204838,0.0,0.0,0,2.918974
-0.43602937,0.62177855,-0.19949844,-0.5164863,-0.005459926,-0.7204194,0.0,0.0,0,-3.196865
-0.43838915,0.6100698,-0.19949612,-0.520915,-0.041477643,-0.72035503,0.0,0.0,0,-3.200926
-0.44074836,0.5982812,-0.1994997,-0.5253437,-0.07749214,-0.7202907,0.0,0.0,0,-3.205429
-0.4431067,0.58641243,-0.19950911,-0.5297722,-0.113503434,-0.7202264,0.0,0.0,0,-3.210411
-0.4454636,0.5744637,-0.19952439,-0.53420043,-0.1495115,-0.72016203,0.0,0.0,0,-3.215888
-0.44781882,0.5624348,-0.19954552,-0.5386282,-0.18551636,-0.7200978,0.0,0.0,0,-3.221897
-0.45017186,0.55032563,-0.19957243,-0.5430554,-0.22151802,-0.7200335,0.0,0.0,2,1.010806
-0.45247024,0.5392118,-0.19391175,-0.49975523,-0.2580107,-0.7298539,0.0,0.0,2,-0.152239
-0.4546544,0.5287815,-0.18273343,-0.47026652,-0.29460397,-0.7318665,0.0,0.0,2,1.256146
-0.4565385,0.5192216,-0.15356189,-0.4323481,-0.33073276,-0.7225763,0.0,0.0,2,1.512640
-0.45806065,0.5105585,-0.11835618,-0.39318353,-0.36627114,-0.71076816,0.0,0.0,2,2.519862
-0.45910364,0.5029886,-0.071603,-0.34519604,-0.40105268,-0.69563186,0.0,0.0,2,1.480215
-0.45967484,0.49635422,-0.02560116,-0.3041501,-0.4350662,-0.680271,0.0,0.0,2,2.045731
-0.4599266,0.4909316,0.0061708516,-0.25111592,-0.46943918,-0.68746054,0.0,0.0,2,-0.228895
-0.46004742,0.48627722,0.019321186,-0.21789406,-0.5044769,-0.70075566,0.0,0.0,2,0.938420
-0.45990688,0.4827902,0.04557244,-0.16702285,-0.54033893,-0.7172414,0.0,0.0,2,-2.767075
-0.4593118,0.4799587,0.08983472,-0.1384091,-0.5755899,-0.7050204,0.0,0.0,1,-2.908917
-0.45876533,0.4770913,0.08286237,-0.14004526,-0.60911053,-0.67041403,0.0,0.0,1,-2.697687
-0.45827428,0.47418803,0.07511667,-0.1415052,-0.6407348,-0.6324868,0.0,0.0,1,-2.219755
-0.45784777,0.47128853,0.06597902,-0.14077754,-0.6697463,-0.58023,0.0,0.0,1,-2.066883
-0.4574872,0.4683798,0.056924224,-0.14056465,-0.6962688,-0.5304506,0.0,0.0,1,-1.793307
-0.4571971,0.46546707,0.047380127,-0.13991672,-0.720118,-0.47698337,0.0,0.0,0,-2.562028
-0.4569037,0.4624629,0.047333598,-0.14427304,-0.7439662,-0.4769647,0.0,0.0,0,-2.556921
-0.45660686,0.45936692,0.047285784,-0.14862864,-0.7678135,-0.47694597,0.0,0.0,0,-2.551786
-0.45630652,0.45617926,0.047236715,-0.15298346,-0.7916599,-0.47692734,0.0,0.0,1,-1.516993
-0.45606875,0.45300093,0.038628474,-0.1514774,-0.8127266,-0.42133355,0.0,0.0,1,-1.493819
-0.45587736,0.4498117,0.03217575,-0.15107402,-0.83160734,-0.37761423,0.0,0.0,1,-1.069035
-0.45574355,0.44663745,0.024256863,-0.14914703,-0.8476744,-0.3213423,0.0,0.0,1,-0.871301
-0.45567036,0.4434698,0.016186237,-0.14757243,-0.86100227,-0.26655695,0.0,0.0,1,-0.854675
-0.45563418,0.44028842,0.0110499,-0.14721432,-0.8723188,-0.22633107,0.0,0.0,1,-0.418991
-0.45565557,0.43712103,0.003368094,-0.14517336,-0.88080615,-0.169747,0.0,0.0,1,-0.255884
-0.4557279,0.43395853,-0.0034309558,-0.14364573,-0.8867235,-0.118347205,0.0,0.0,1,-0.244047
-0.4558429,0.4307723,-0.008971328,-0.14369129,-0.890689,-0.0793096,0.0,0.0,1,0.117945
-0.45600247,0.42758954,-0.014986704,-0.14225279,-0.89220595,-0.030338988,0.0,0.0,0,-0.369186
-0.45616198,0.4243096,-0.0149869295,-0.14657293,-0.8937229,-0.030338999,0.0,0.0,0,-0.363731
-0.45632142,0.42093244,-0.014987156,-0.15089305,-0.89523983,-0.030338917,0.0,0.0,2,1.462103
-0.45605764,0.41798472,0.027363712,-0.13183364,-0.8968001,-0.031204963,0.0,0.0,2,-0.502627
-0.45536047,0.41533878,0.07052401,-0.118268184,-0.89807093,-0.02541652,0.0,0.0,2,-1.750655
-0.45406693,0.41359586,0.13059154,-0.0785029,-0.90003574,-0.039296668,0.0,0.0,2,-6.047101
-0.452029,0.4125495,0.20489249,-0.047427244,-0.9017785,-0.034856,0.0,0.0,2,-5.951441
-0.44937617,0.41226098,0.26656595,-0.013912369,-0.90382606,-0.040950924,0.0,0.0,2,-6.648584
-0.44608712,0.41262725,0.3301862,0.015191863,-0.90587604,-0.040999863,0.0,0.0,2,-6.936188
-0.44218263,0.41391435,0.3921747,0.055731256,-0.9086402,-0.055284064,0.0,0.0,2,-9.770730
-0.43736535,0.41590205,0.48304144,0.08721742,-0.91075003,-0.042196784,0.0,0.0,2,-8.356126
-0.43182153,0.4188379,0.55599153,0.12909485,-0.9133464,-0.051927574,0.0,0.0,2,-8.836834
-0.4254995,0.4226133,0.6338664,0.16636015,-0.9160303,-0.05367756,0.0,0.0,2,-7.886069
-0.41846618,0.42698038,0.70478535,0.19282292,-0.91839653,-0.047324948,0.0,0.0,0,0.058206
-0.4114329,0.4312502,0.7047848,0.18850264,-0.9207628,-0.04732492,0.0,0.0,0,0.052100
-0.40439954,0.43542302,0.7047843,0.18418236,-0.923129,-0.047324914,0.0,0.0,0,0.046169
-0.39736614,0.43949863,0.70478374,0.17986207,-0.92549527,-0.047324963,0.0,0.0,0,0.040389
-0.39033264,0.4434771,0.70478314,0.17554179,-0.9278615,-0.04732495,0.0,0.0,0,0.034765
-0.38329917,0.44735843,0.70478255,0.1712215,-0.93022776,-0.047324948,0.0,0.0,0,0.029291
-0.37626562,0.45114255,0.704782,0.1669012,-0.932594,-0.047324937,0.0,0.0,0,0.023968
-0.3692321,0.45482963,0.7047814,0.16258092,-0.93496025,-0.047324963,0.0,0.0,1,0.881103
-0.3622593,0.45852852,0.6969718,0.16467313,-0.9344503,0.01019798,0.0,0.0,1,0.973323
-0.35533518,0.46221608,0.69073343,0.16540189,-0.9316653,0.055699617,0.0,0.0,1,1.057321
-0.3484493,0.46588692,0.68567735,0.16574399,-0.92686355,0.09603472,0.0,0.0,1,1.242982
-0.34160265,0.4695282,0.6806297,0.16540243,-0.920254,0.13219164,0.0,0.0,1,1.603545
-0.33480495,0.4731896,0.673953,0.16777782,-0.9108226,0.18862884,0.0,0.0,0,1.143854
-0.32800668,0.47675452,0.67394406,0.16345327,-0.9013912,0.18862769,0.0,0.0,0,1.139312
-0.32120776,0.48022294,0.67393523,0.15912864,-0.8919599,0.18862656,0.0,0.0,0,1.134923
-0.31440815,0.48359492,0.6739265,0.15480396,-0.88252866,0.1886254,0.0,0.0,0,1.130678
-0.30760798,0.48687044,0.6739178,0.15047924,-0.8730975,0.18862425,0.0,0.0,1,1.708137
-0.30084825,0.4901203,0.6685755,0.15026495,-0.8617909,0.22613195,0.0,0.0,1,2.008117
-0.29413557,0.49336746,0.6621791,0.15129445,-0.8481167,0.273484,0.0,0.0,1,2.191968
-0.28746787,0.49659893,0.65611386,0.15156068,-0.83234,0.3155352,0.0,0.0,1,2.490813
-0.28085083,0.49982953,0.649171,0.15260741,-0.8141281,0.36423835,0.0,0.0,1,2.785638
-0.27429038,0.5030469,0.6416265,0.15299329,-0.79358673,0.41082746,0.0,0.0,1,2.996561
-0.26778406,0.5062573,0.6341776,0.15360877,-0.77067006,0.4583332,0.0,0.0,1,3.272499
-0.26133442,0.50946844,0.62627184,0.15453832,-0.74523574,0.5086859,0.0,0.0,0,2.664254
-0.25488096,0.5125886,0.6262158,0.1501788,-0.71980256,0.50866324,0.0,0.0,0,2.660597
-0.24842367,0.5156181,0.6261614,0.14581834,-0.6943705,0.5086405,0.0,0.0,0,2.657031
-0.24196276,0.5185571,0.62610847,0.14145699,-0.6689396,0.5086178,0.0,0.0,0,2.653573
-0.23549823,0.5214055,0.62605715,0.13709474,-0.6435098,0.5085952,0.0,0.0,0,2.650184
-0.22903037,0.52416366,0.62600744,0.13273165,-0.61808115,0.5085726,0.0,0.0,0,2.646894
-0.22255917,0.52683157,0.62595946,0.12836772,-0.59265363,0.50854987,0.0,0.0,0,2.643675
-0.21608476,0.52940947,0.625913,0.124002986,-0.56722724,0.5085272,0.0,0.0,0,2.640529
-0.20960727,0.5318975,0.62586844,0.1196375,-0.541802,0.50850457,0.0,0.0,0,2.637466
-0.20312686,0.5342957,0.6258255,0.11527126,-0.51637787,0.5084819,0.0,0.0,0,2.634470
-0.19664364,0.5366041,0.6257844,0.11090432,-0.4909549,0.5084593,0.0,0.0,0,2.631533
-0.1901578,0.53882307,0.62574506,0.1065367,-0.46553308,0.5084366,0.0,0.0,0,2.628693
-0.18366937,0.54095227,0.6257075,0.102168426,-0.44011238,0.508414,0.0,0.0,0,2.625893
-0.17717847,0.5429921,0.6256719,0.09779953,-0.41469282,0.5083913,0.0,0.0,0,2.623153
-0.17068529,0.5449427,0.6256381,0.09343006,-0.3892744,0.5083687,0.0,0.0,0,2.620461
-0.16419001,0.54680413,0.6256063,0.08906004,-0.3638571,0.5083461,0.0,0.0,0,2.617844
-0.15769272,0.54857635,0.6255764,0.0846895,-0.33844092,0.50832343,0.0,0.0,0,2.615280
-0.15119334,0.5502595,0.6255484,0.080318466,-0.3130259,0.5083007,0.0,0.0,0,2.612771
-0.14469223,0.5518535,0.6255224,0.075946964,-0.287612,0.5082781,0.0,0.0,0,2.610288
-0.1381896,0.5533587,0.6254983,0.071575046,-0.26219922,0.50825554,0.0,0.0,0,2.607864
-0.13168545,0.55477494,0.62547624,0.067202754,-0.23678759,0.5082329,0.0,0.0,0,2.605489
-0.12517996,0.55610234,0.62545615,0.06283008,-0.21137708,0.5082103,0.0,0.0,0,2.603154
-0.118673325,0.5573409,0.62543803,0.058457103,-0.18596768,0.50818765,0.0,0.0,0,2.600846
-0.112165734,0.5584907,0.62542206,0.05408383,-0.16055943,0.508165,0.0,0.0,0,2.598582
-0.1056571,0.5595519,0.62540805,0.049710307,-0.13515233,0.50814235,0.0,0.0,0,2.596348
-0.0991477,0.56052434,0.62539613,0.045336563,-0.109746344,0.5081197,0.0,0.0,0,2.594159
-0.09263773,0.5614081,0.6253862,0.040962644,-0.084341496,0.5080971,0.0,0.0,0,2.591992
-0.086127184,0.56220317,0.6253784,0.036588572,-0.058937807,0.5080745,0.0,0.0,0,2.589845
-0.07961645,0.5629097,0.62537265,0.032214392,-0.033535212,0.508052,0.0,0.0,0,2.587747
-0.07310543,0.5635275,0.62536895,0.027840132,-0.008133762,0.5080294,0.0,0.0,0,-0.867663
-0.06659441,0.5640568,0.6253673,0.023465829,0.017266572,0.5080069,0.0,0.0,0,-2.496254
-0.060083486,0.56449753,0.62536776,0.019091513,0.042665787,0.5079843,0.0,0.0,0,-2.498063
-0.053572845,0.5648495,0.6253702,0.014717226,0.068063855,0.5079617,0.0,0.0,0,-2.499880
-0.047062684,0.5651129,0.6253748,0.010343001,0.09346082,0.50793916,0.0,0.0,0,-2.501659
-0.040553093,0.5652876,0.62538147,0.005968872,0.11885667,0.50791657,0.0,0.0,0,-2.503427
-0.034044076,0.5653736,0.6253902,0.0015948742,0.14425136,0.50789404,0.0,0.0,0,-2.505175
-0.02753582,0.5653709,0.62540084,-0.0027789562,0.1696449,0.5078715,0.0,0.0,0,-2.506937
-0.021028709,0.5652795,0.6254136,-0.0071525867,0.19503734,0.5078489,0.0,0.0,0,-2.508668
-0.0145225525,0.5650992,0.62542844,-0.01152598,0.22042863,0.5078264,0.0,0.0,0,-2.510416
-0.008017731,0.5648301,0.6254453,-0.015899105,0.24581881,0.5078038,0.0,0.0,0,-2.512142
-0.0015143395,0.56447214,0.62546414,-0.020271927,0.27120787,0.50778127,0.0,0.0,0,-2.513886
0.0049875258,0.5640252,0.62548506,-0.024644408,0.29659578,0.50775874,0.0,0.0,0,-2.515612
0.011487675,0.56348926,0.62550795,-0.029016517,0.32198262,0.5077362,0.0,0.0,0,-2.517348
0.017986108,0.5628643,0.62553275,-0.03338822,0.34736827,0.50771374,0.0,0.0,0,-2.519092
0.024482537,0.5621502,0.62555957,-0.037759487,0.3727528,0.5076912,0.0,0.0,2,0.078983
0.03069191,0.5623022,0.5972243,0.00037183438,0.39798057,0.50455636,0.0,0.0,2,-0.798293
0.036680125,0.56301916,0.57551,0.025129026,0.42305598,0.501509,0.0,0.0,2,-2.761789
0.04262676,0.56431735,0.57098955,0.05037058,0.44881296,0.5151395,0.0,0.0,0,-2.710672
0.048570823,0.5655262,0.571025,0.04599992,0.47456875,0.51511604,0.0,0.0,0,-2.711128
0.05451212,0.5666458,0.57106245,0.041629888,0.50032336,0.5150925,0.0,0.0,0,-2.711505
0.060450554,0.56767577,0.5711017,0.037260514,0.5260768,0.51506895,0.0,0.0,0,-2.711869
0.066386126,0.5686162,0.5711429,0.032891832,0.55182904,0.5150454,0.0,0.0,0,-2.712188
0.07231846,0.569467,0.571186,0.028523881,0.57758015,0.5150219,0.0,0.0,0,-2.712451
0.07824774,0.5702279,0.57123095,0.02415668,0.6033301,0.5149983,0.0,0.0,0,-2.712690
0.08417358,0.5708989,0.5712777,0.01979027,0.6290788,0.5149749,0.0,0.0,2,-0.962314
0.08986406,0.5722189,0.5477555,0.048079785,0.6552993,0.5244117,0.0,0.0,2,3.072065
0.09484844,0.5745943,0.47789723,0.0947943,0.68109435,0.5159007,0.0,0.0,2,2.706295
0.09910937,0.5778584,0.40651712,0.13424663,0.70620334,0.5021803,0.0,0.0,0,-2.766786
0.10336666,0.5810318,0.40656814,0.12988578,0.73131126,0.5021585,0.0,0.0,0,-2.764141
0.10762024,0.58411413,0.40662068,0.1255258,0.7564181,0.5021367,0.0,0.0,0,-2.761487
0.11186991,0.58710533,0.40667468,0.12116671,0.7815238,0.5021149,0.0,0.0,0,-2.758853
0.11611567,0.59000534,0.40673012,0.11680854,0.80662847,0.5020931,0.0,0.0,0,-2.756195
0.12035742,0.5928138,0.406787,0.1124513,0.83173203,0.50207126,0.0,0.0,3,-3.271077
0.124640845,0.5956001,0.41271544,0.112161525,0.85490805,0.46352035,0.0,0.0,3,-3.187428
0.12897673,0.5983843,0.41994596,0.11309388,0.8756349,0.41453853,0.0,0.0,0,-2.321111
0.13330965,0.60107476,0.41998735,0.10875041,0.89636123,0.4145263,0.0,0.0,0,-2.318222
0.13763952,0.60367185,0.42002946,0.104407504,0.91708696,0.41451406,0.0,0.0,0,-2.315304
0.14196634,0.6061752,0.42007226,0.100065194,0.937812,0.41450182,0.0,0.0,0,-2.312407
0.14629011,0.6085846,0.42011577,0.09572347,0.95853645,0.4144895,0.0,0.0,0,-2.309529
0.15061083,0.6109001,0.42015997,0.09138236,0.97926027,0.41447726,0.0,0.0,3,-2.791569
0.15497284,0.6132242,0.42605647,0.09304239,0.99744976,0.36378932,0.0,0.0,3,-2.393385
0.1593628,0.61552566,0.4300712,0.092935555,1.0138655,0.32831544,0.0,0.0,3,-2.249049
0.16378412,0.6178202,0.4345557,0.093746796,1.028161,0.28591156,0.0,0.0,3,-2.025286
0.16823587,0.62011486,0.4389314,0.09498958,1.0402049,0.24087617,0.0,0.0,0,-1.446168
0.17268658,0.62231314,0.4389472,0.09066333,1.0522486,0.24087374,0.0,0.0,0,-1.443021
0.17713614,0.6244153,0.4389631,0.086337216,1.0642922,0.24087135,0.0,0.0,0,-1.439897
0.18158455,0.62642115,0.4389791,0.08201123,1.0763357,0.24086896,0.0,0.0,0,-1.436789
0.18603182,0.6283306,0.4389952,0.07768536,1.088379,0.24086657,0.0,0.0,0,-1.433732
0.19047804,0.63014376,0.43901142,0.07335963,1.1004223,0.24086419,0.0,0.0,0,-1.430710
0.19492301,0.6318607,0.4390278,0.06903402,1.1124654,0.24086177,0.0,0.0,2,1.303013
0.1990035,0.63405347,0.40234193,0.08963248,1.1253462,0.25761583,0.0,0.0,2,4.449931
0.20236644,0.6366862,0.3307089,0.10909351,1.1382905,0.25888875,0.0,0.0,0,-1.507170
0.20572796,0.6392226,0.3307281,0.10476751,1.1512349,0.2588857,0.0,0.0,0,-1.503741
0.20908813,0.64166266,0.33074743,0.10044167,1.164179,0.2588827,0.0,0.0,0,-1.500423
0.21244688,0.64400655,0.33076686,0.096116014,1.177123,0.25887972,0.0,0.0,2,3.417964
0.21516809,0.64676815,0.26702693,0.114432625,1.1904012,0.26556545,0.0,0.0,2,1.814716
0.21734962,0.64998263,0.21299486,0.13411433,1.204327,0.2785153,0.0,0.0,0,-1.531648
0.21952954,0.653101,0.2130177,0.12978837,1.2182525,0.27851158,0.0,0.0,0,-1.528160
0.22170782,0.6561231,0.21304068,0.12546262,1.232178,0.2785079,0.0,0.0,0,-1.524791
0.2238845,0.6590487,0.21306379,0.1211371,1.2461032,0.2785042,0.0,0.0,2,4.751597
0.22520018,0.6620411,0.1274033,0.12457338,1.2592374,0.26268497,0.0,0.0,0,-1.331821
0.22651443,0.6649372,0.12742403,0.12024884,1.2723715,0.2626818,0.0,0.0,0,-1.328334
0.22782736,0.6677366,0.12744488,0.115924485,1.2855054,0.2626787,0.0,0.0,0,-1.325173
0.22913866,0.67043954,0.12746578,0.11160032,1.2986392,0.2626756,0.0,0.0,0,-1.322308
0.23044863,0.6730458,0.1274868,0.10727632,1.3117728,0.26267248,0.0,0.0,0,-1.319774
0.23175697,0.67555547,0.12750787,0.10295251,1.3249063,0.26266938,0.0,0.0,0,-1.317562
0.23306389,0.67796844,0.12752901,0.09862888,1.3380396,0.26266629,0.0,0.0,0,-1.315730
0.23436937,0.6802849,0.12755021,0.09430543,1.3511728,0.26266316,0.0,0.0,0,-1.314238
0.23567334,0.6825045,0.1275715,0.08998218,1.3643059,0.26266003,0.0,0.0,0,-1.313142
0.23697576,0.6846275,0.12759283,0.085659124,1.3774387,0.26265687,0.0,0.0,0,-1.312411
0.23827668,0.68665355,0.12761423,0.081336245,1.3905714,0.26265377,0.0,0.0,0,-1.312129
0.23957615,0.688583,0.12763569,0.07701356,1.4037039,0.2626506,0.0,0.0,3,-1.622273
0.24089098,0.69053096,0.12976448,0.07957354,1.4142054,0.21002905,0.0,0.0,0,-1.047999
0.24220476,0.69238174,0.12977827,0.07525205,1.4247068,0.21002746,0.0,0.0,0,-1.048228
0.24351759,0.69413567,0.12979206,0.070930645,1.4352081,0.21002586,0.0,0.0,0,-1.048869
0.24482946,0.6957926,0.12980588,0.066609345,1.4457093,0.21002424,0.0,0.0,3,-1.239934
0.24615002,0.6974533,0.13104118,0.06830426,1.4539276,0.16436668,0.0,0.0,3,-1.114286
0.24748774,0.69915307,0.13317758,0.07209731,1.4590558,0.10256191,0.0,0.0,0,-0.507975
0.24882516,0.70075536,0.13318089,0.06777705,1.4641839,0.10256173,0.0,0.0,0,-0.508820
0.25016242,0.7022607,0.13318421,0.06345681,1.469312,0.102561556,0.0,0.0,0,-0.510050
0.25149947,0.7036688,0.13318753,0.05913658,1.47444,0.10256138,0.0,0.0,3,-0.644481
0.25284368,0.70506793,0.13412586,0.06008062,1.4775729,0.062659174,0.0,0.0,3,-0.519726
0.25420198,0.7064887,0.13579018,0.06284787,1.4780123,0.008788961,0.0,0.0,3,-0.143307
0.25556335,0.7079076,0.13630384,0.06420645,1.4763087,-0.034071255,0.0,0.0,3,0.045346
0.2569314,0.709314,0.13714823,0.06493698,1.472692,-0.0723337,0.0,0.0,0,0.371583
0.25829917,0.7106232,0.13714989,0.060616873,1.4690753,-0.07233364,0.0,0.0,0,0.370203
0.25966683,0.71183527,0.13715154,0.056296766,1.4654586,-0.07233362,0.0,0.0,0,0.368451
0.2610345,0.71295005,0.13715318,0.051976655,1.4618421,-0.07233355,0.0,0.0,0,0.366348
0.26240206,0.71396774,0.13715483,0.047656536,1.4582254,-0.07233347,0.0,0.0,0,0.363894
0.26376945,0.7148881,0.13715649,0.04333641,1.4546087,-0.07233341,0.0,0.0,3,0.312806
0.26514015,0.71583813,0.13785478,0.04655123,1.4481518,-0.1291379,0.0,0.0,3,0.483662
0.26652527,0.7168077,0.13967362,0.049190465,1.4390442,-0.18215102,0.0,0.0,0,0.917553
0.26790953,0.71768004,0.13968405,0.04486958,1.4299368,-0.18214998,0.0,0.0,0,0.914969
0.26929313,0.7184555,0.13969445,0.04054863,1.4208293,-0.18214893,0.0,0.0,0,0.912088
0.27067596,0.71913385,0.13970485,0.03622762,1.411722,-0.18214792,0.0,0.0,0,0.908923
0.272058,0.71971506,0.13971522,0.03190655,1.4026146,-0.18214688,0.0,0.0,2,6.380364
0.27281627,0.7203552,0.07741232,0.03451474,1.393498,-0.1823321,0.0,0.0,2,4.253868
0.27284318,0.7212782,0.004254885,0.046713497,1.3849378,-0.17120408,0.0,0.0,0,1.207888
0.2728694,0.7221042,0.0042640143,0.042392388,1.3763776,-0.17120323,0.0,0.0,0,1.216496
0.27289495,0.72283316,0.0042731273,0.038071223,1.3678176,-0.17120236,0.0,0.0,0,1.224965
0.27291995,0.723465,0.0042822263,0.033750005,1.3592577,-0.1712015,0.0,0.0,0,1.233146
0.27294436,0.72400004,0.0042913086,0.02942874,1.3506976,-0.17120065,0.0,0.0,0,1.240879
0.272968,0.7244379,0.0043003755,0.02510742,1.3421377,-0.17119978,0.0,0.0,2,-2.445051
0.27250785,0.7250473,-0.04408363,0.032513406,1.3338763,-0.16522942,0.0,0.0,0,1.040005
0.27204704,0.7255597,-0.044075213,0.028192084,1.3256148,-0.16522864,0.0,0.0,0,1.023772
0.27158576,0.72597516,-0.044066817,0.023870718,1.3173534,-0.16522786,0.0,0.0,0,1.004059
0.2711238,0.72629374,-0.044058435,0.019549303,1.309092,-0.16522706,0.0,0.0,0,0.980836
0.27066135,0.7265152,-0.044050075,0.01522784,1.3008307,-0.16522627,0.0,0.0,0,0.954208
0.27019826,0.7266396,-0.04404173,0.010906335,1.2925694,-0.1652255,0.0,0.0,0,0.924592
0.26973468,0.7266671,-0.04403341,0.0065847808,1.2843082,-0.16522475,0.0,0.0,0,0.892736
0.26927042,0.72659785,-0.0440251,0.0022631814,1.276047,-0.16522397,0.0,0.0,0,0.859691
0.26880568,0.7264315,-0.044016816,-0.0020584639,1.2677858,-0.1652232,0.0,0.0,0,0.826570
0.2683402,0.7261683,-0.044008553,-0.0063801548,1.2595247,-0.16522244,0.0,0.0,2,-7.304448
0.26709527,0.72632736,-0.12203674,0.012106664,1.2516834,-0.15682785,0.0,0.0,2,-7.635915
0.26505557,0.7268854,-0.20154862,0.02963136,1.2441405,-0.15085806,0.0,0.0,0,0.839622
0.26301536,0.7273464,-0.20154178,0.025309842,1.2365977,-0.15085748,0.0,0.0,0,0.839164
0.2609747,0.7277105,-0.20153494,0.02098829,1.2290548,-0.15085688,0.0,0.0,0,0.838659
0.25893354,0.7279776,-0.20152815,0.016666701,1.221512,-0.15085629,0.0,0.0,0,0.838102
0.2568919,0.7281478,-0.20152135,0.012345078,1.2139692,-0.15085569,0.0,0.0,2,-3.862427
0.25442228,0.7285329,-0.2443444,0.02175298,1.2066364,-0.14665708,0.0,0.0,0,0.822301
0.25195217,0.72882116,-0.244338,0.017431384,1.1993036,-0.14665654,0.0,0.0,0,0.823126
0.24948168,0.72901255,-0.24433164,0.013109757,1.1919708,-0.14665599,0.0,0.0,0,0.823980
0.24701071,0.72910684,-0.24432532,0.008788096,1.184638,-0.14665544,0.0,0.0,0,0.824817
0.24453926,0.7291042,-0.24431904,0.0044664056,1.1773052,-0.1466549,0.0,0.0,0,0.825655
0.24206743,0.7290048,-0.24431273,0.00014468569,1.1699725,-0.14665438,0.0,0.0,0,0.826542
0.23959513,0.7288084,-0.24430645,-0.004177065,1.1626399,-0.14665386,0.0,0.0,0,0.827451
0.23712234,0.728515,-0.2443002,-0.008498848,1.1553072,-0.14665332,0.0,0.0,0,0.828382
0.23464918,0.7281248,-0.24429396,-0.012820663,1.1479745,-0.14665279,0.0,0.0,0,0.829338
0.23217563,0.7276377,-0.24428773,-0.017142506,1.1406419,-0.14665224,0.0,0.0,0,0.830368
0.22970161,0.7270536,-0.24428153,-0.021464381,1.1333094,-0.14665172,0.0,0.0,0,0.831438
0.22722712,0.72637266,-0.24427536,-0.025786284,1.1259768,-0.14665118,0.0,0.0,0,0.832576
0.22475223,0.72559476,-0.2442692,-0.030108217,1.1186442,-0.14665064,0.0,0.0,0,0.833771
0.22227688,0.72472,-0.24426305,-0.034430183,1.1113117,-0.14665009,0.0,0.0,0,0.835017
0.21980114,0.7237484,-0.24425694,-0.03875218,1.1039792,-0.14664957,0.0,0.0,0,0.836359
0.21732493,0.72268,-0.24425085,-0.0430742,1.0966468,-0.14664903,0.0,0.0,0,0.837791
0.21484832,0.7215145,-0.24424477,-0.047396254,1.0893143,-0.14664848,0.0,0.0,0,0.839295
0.21237135,0.7202522,-0.2442387,-0.051718343,1.0819819,-0.14664793,0.0,0.0,0,0.840866
0.2098939,0.71889323,-0.2442327,-0.05604046,1.0746496,-0.1466474,0.0,0.0,0,0.842575
0.20741597,0.71743727,-0.24422672,-0.060362604,1.0673172,-0.14664683,0.0,0.0,0,0.844351
0.20493774,0.7158846,-0.24422076,-0.06468478,1.0599849,-0.14664628,0.0,0.0,0,0.846281
0.20245905,0.71423477,-0.2442148,-0.06900697,1.0526526,-0.14664574,0.0,0.0,3,1.625073
0.20001745,0.7125728,-0.23937738,-0.06833079,1.0432024,-0.18900275,0.0,0.0,3,1.960875
0.19761515,0.710921,-0.23404679,-0.06641712,1.0311817,-0.24041486,0.0,0.0,0,1.314453
0.1952117,0.7091732,-0.23403104,-0.07074331,1.0191611,-0.2404125,0.0,0.0,0,1.316242
0.19280729,0.70732915,-0.23401539,-0.075069636,1.0071406,-0.24041012,0.0,0.0,0,1.318156
0.19040164,0.70538896,-0.23399985,-0.07939609,0.9951202,-0.2404077,0.0,0.0,0,1.320186
0.18799496,0.70335263,-0.23398444,-0.083722666,0.9830999,-0.24040529,0.0,0.0,0,1.322339
0.18558732,0.70122015,-0.23396914,-0.08804937,0.97107965,-0.24040289,0.0,0.0,3,2.334002
0.18322869,0.6990861,-0.22749647,-0.08681022,0.9565958,-0.28967795,0.0,0.0,3,2.664186
0.18091707,0.6969734,-0.22093403,-0.0843918,0.9392751,-0.3464143,0.0,0.0,0,1.848386
0.17860337,0.6947658,-0.22090316,-0.08872655,0.92195475,-0.34640712,0.0,0.0,0,1.850298
0.17628756,0.6924636,-0.22087264,-0.09306166,0.9046348,-0.34639996,0.0,0.0,0,1.852370
0.17396955,0.69006646,-0.22084253,-0.09739712,0.88731515,-0.3463928,0.0,0.0,0,1.854559
0.17164955,0.6875748,-0.22081283,-0.101732925,0.8699959,-0.34638563,0.0,0.0,0,1.856911
0.16932754,0.68498844,-0.22078352,-0.106069066,0.852677,-0.34637845,0.0,0.0,0,1.859399
0.16700344,0.6823075,-0.22075467,-0.11040554,0.83535844,-0.34637132,0.0,0.0,0,1.862024
0.16467743,0.6795322,-0.22072622,-0.11474235,0.81804025,-0.34636414,0.0,0.0,0,1.864824
0.1623495,0.67666215,-0.22069824,-0.119079486,0.8007224,-0.34635693,0.0,0.0,0,1.867734
0.16001968,0.6736978,-0.2206707,-0.12341693,0.78340495,-0.34634975,0.0,0.0,0,1.870808
0.15768795,0.6706391,-0.22064361,-0.1277547,0.76608783,-0.34634253,0.0,0.0,0,1.874011
0.1553545,0.66748613,-0.22061701,-0.13209277,0.7487711,-0.34633535,0.0,0.0,0,1.877370
0.15301904,0.66423887,-0.22059086,-0.13643117,0.7314547,-0.3463282,0.0,0.0,0,1.880864
0.15068197,0.6608973,-0.2205652,-0.14076987,0.7141386,-0.34632105,0.0,0.0,0,1.884510
0.14834318,0.6574615,-0.22054,-0.14510885,0.69682294,-0.3463139,0.0,0.0,0,1.888266
0.14600258,0.65393174,-0.22051533,-0.14944813,0.6795076,-0.34630674,0.0,0.0,0,1.892189
0.14366035,0.65030766,-0.22049114,-0.15378767,0.66219264,-0.34629956,0.0,0.0,0,1.896207
0.1413165,0.64658976,-0.2204675,-0.15812752,0.64487803,-0.34629238,0.0,0.0,0,1.900388
0.13897114,0.64277774,-0.22044437,-0.16246761,0.6275638,-0.34628516,0.0,0.0,0,1.904709
0.13662405,0.6388716,-0.22042175,-0.16680795,0.6102499,-0.34627798,0.0,0.0,0,1.909110
0.13427553,0.6348717,-0.22039965,-0.17114857,0.59293634,-0.34627083,0.0,0.0,0,1.913675
0.13192558,0.6307778,-0.22037813,-0.17548944,0.57562315,-0.34626368,0.0,0.0,0,1.918345
0.12957421,0.62658995,-0.22035715,-0.17983055,0.55831033,-0.3462565,0.0,0.0,0,1.923123
0.12722139,0.62230843,-0.2203367,-0.1841719,0.54099786,-0.34624928,0.0,0.0,0,1.928045
0.124867156,0.6179329,-0.22031681,-0.18851349,0.52368575,-0.34624213,0.0,0.0,0,1.933051
0.12251167,0.6134637,-0.2202975,-0.19285531,0.506374,-0.34623498,0.0,0.0,0,1.938153
0.12015486,0.608901,-0.22027877,-0.19719735,0.4890626,-0.34622782,0.0,0.0,0,1.943391
0.1177968,0.60424453,-0.22026059,-0.20153959,0.47175157,-0.34622067,0.0,0.0,0,1.948720
0.115437604,0.59949446,-0.22024302,-0.20588206,0.4544409,-0.34621352,0.0,0.0,0,1.954151
0.11307726,0.5946508,-0.220226,-0.2102247,0.43713057,-0.34620643,0.0,0.0,0,1.959688
0.11071567,0.5897136,-0.22020957,-0.21456756,0.4198206,-0.34619927,0.0,0.0,0,1.965311
0.10835304,0.58468276,-0.22019377,-0.21891059,0.402511,-0.3461921,0.0,0.0,0,1.971034
0.10598936,0.5795584,-0.22017853,-0.22325379,0.38520175,-0.3461849,0.0,0.0,0,1.976847
0.10362463,0.5743404,-0.22016391,-0.22759718,0.36789286,-0.34617773,0.0,0.0,0,1.982725
0.10125904,0.56902915,-0.22014992,-0.23194072,0.35058433,-0.3461706,0.0,0.0,0,1.988715
0.098892495,0.5636243,-0.22013652,-0.23628442,0.33327615,-0.34616345,0.0,0.0,0,1.994769
0.096525,0.5581261,-0.22012374,-0.24062827,0.31596836,-0.3461563,0.0,0.0,0,2.000905
0.09415684,0.5525344,-0.22011158,-0.24497226,0.29866093,-0.34614915,0.0,0.0,0,2.007123
0.091787815,0.54684937,-0.22010008,-0.2493164,0.28135383,-0.346142,0.0,0.0,0,2.013412
0.08941803,0.5410709,-0.22008917,-0.25366065,0.2640471,-0.3461348,0.0,0.0,0,2.019764
0.087047674,0.53519905,-0.22007892,-0.25800505,0.24674071,-0.34612766,0.0,0.0,0,2.026191
0.08467655,0.5292339,-0.22006929,-0.26234955,0.2294347,-0.34612048,0.0,0.0,0,2.032677
0.08230486,0.5231755,-0.22006027,-0.26669416,0.21212904,-0.34611332,0.0,0.0,0,2.039225
0.07993269,0.51702374,-0.22005191,-0.27103886,0.19482374,-0.34610623,0.0,0.0,0,2.045844
0.077560045,0.5107787,-0.22004418,-0.2753836,0.1775188,-0.34609908,0.0,0.0,1,1.105159
0.07510547,0.5044245,-0.23025247,-0.2806615,0.16228989,-0.3045782,0.0,0.0,1,0.725967
0.072556116,0.4979501,-0.24212714,-0.2864043,0.14949463,-0.25590482,0.0,0.0,0,1.634330
0.070006564,0.49138063,-0.24212389,-0.29073796,0.13669956,-0.25590193,0.0,0.0,0,1.641160
0.067456916,0.4847161,-0.2421209,-0.29507163,0.123904616,-0.255899,0.0,0.0,0,1.648039
0.06490698,0.4779565,-0.24211816,-0.2994054,0.11110981,-0.25589615,0.0,0.0,0,1.654952
0.062356852,0.4711019,-0.2421157,-0.30373913,0.09831515,-0.2558933,0.0,0.0,0,1.661901
0.059806727,0.46415234,-0.24211352,-0.30807292,0.08552062,-0.25589043,0.0,0.0,0,1.668905
0.05725641,0.45710766,-0.2421116,-0.31240666,0.07272625,-0.25588757,0.0,0.0,0,1.675923
0.054706,0.44996798,-0.24210994,-0.31674042,0.05993203,-0.25588465,0.0,0.0,0,1.682978
0.052155495,0.44273323,-0.24210855,-0.3210742,0.047137946,-0.2558818,0.0,0.0,0,1.690046
0.049604893,0.4354036,-0.24210744,-0.32540798,0.034344006,-0.2558789,0.0,0.0,0,1.697156
0.047054194,0.42797878,-0.24210653,-0.32974184,0.021550216,-0.255876,0.0,0.0,0,1.704272
0.0445035,0.42045903,-0.24210593,-0.33407563,0.008756567,-0.25587308,0.0,0.0,2,4.054875
0.041983128,0.4137925,-0.23925297,-0.29626188,-0.003872322,-0.25257772,0.0,0.0,2,1.014250
0.03934164,0.40796673,-0.25078094,-0.25900686,-0.017071899,-0.26399118,0.0,0.0,2,2.173341
0.03675089,0.40309146,-0.24588129,-0.21688023,-0.03009198,-0.26040202,0.0,0.0,0,-1.072415
0.034160234,0.39812124,-0.24588175,-0.22121456,-0.04311194,-0.260399,0.0,0.0,0,-1.067258
0.031569578,0.393056,-0.24588254,-0.22554891,-0.05613174,-0.26039594,0.0,0.0,0,-1.062056
0.028979111,0.38789585,-0.24588355,-0.22988324,-0.069151394,-0.2603929,0.0,0.0,0,-1.056813
0.02638874,0.3826408,-0.2458849,-0.23421755,-0.082170896,-0.2603899,0.0,0.0,0,-1.051522
0.023798466,0.37729076,-0.24588649,-0.23855184,-0.095190234,-0.26038688,0.0,0.0,0,-1.046215
0.021208476,0.3718458,-0.24588838,-0.24288613,-0.10820944,-0.2603838,0.0,0.0,0,-1.040870
0.018618584,0.36630586,-0.24589053,-0.24722038,-0.121228494,-0.26038077,0.0,0.0,0,-1.035509
0.016028786,0.36067092,-0.24589296,-0.25155464,-0.13424738,-0.2603777,0.0,0.0,0,-1.030140
0.013439273,0.354941,-0.24589567,-0.25588885,-0.14726609,-0.26037464,0.0,0.0,0,-1.024780
0.010849953,0.3491162,-0.24589865,-0.26022306,-0.1602847,-0.26037163,0.0,0.0,0,-1.019409
0.008260822,0.3431963,-0.24590191,-0.26455724,-0.17330313,-0.26036856,0.0,0.0,0,-1.014077
0.0056720735,0.33718157,-0.24590544,-0.2688914,-0.1863214,-0.26036552,0.0,0.0,0,-1.008756
0.0030835152,0.33107185,-0.24590929,-0.27322546,-0.19933951,-0.26036248,0.0,0.0,0,-1.003469
0.00049533846,0.3248671,-0.24591339,-0.2775595,-0.21235748,-0.26035944,0.0,0.0,1,-1.249211
-0.0021514893,0.31859758,-0.25336868,-0.28031054,-0.22379047,-0.2286599,0.0,0.0,1,-1.160841
-0.004869175,0.3122622,-0.2623443,-0.28303108,-0.23333634,-0.19091749,0.0,0.0,1,-0.983079
-0.0076646805,0.30586955,-0.27223104,-0.2852988,-0.2407763,-0.1487988,0.0,0.0,1,-0.785112
-0.010532474,0.29940605,-0.28133315,-0.2881689,-0.24631535,-0.110780895,0.0,0.0,0,-0.220472
-0.013400173,0.29284573,-0.2813341,-0.29249138,-0.25185436,-0.11078068,0.0,0.0,0,-0.216434
-0.016267871,0.28618857,-0.28133506,-0.29681388,-0.2573934,-0.110780455,0.0,0.0,0,-0.212615
-0.01913538,0.27943468,-0.281336,-0.3011364,-0.2629324,-0.11078024,0.0,0.0,0,-0.209016
-0.022002887,0.27258396,-0.28133702,-0.3054589,-0.2684714,-0.110779986,0.0,0.0,1,-0.501973
-0.02493143,0.2656592,-0.28901726,-0.30847663,-0.27239695,-0.078511335,0.0,0.0,1,-0.404946
-0.027943516,0.25868025,-0.29960522,-0.31047407,-0.27404413,-0.032943644,0.0,0.0,1,-0.223396
-0.031042289,0.25164157,-0.31053162,-0.3127113,-0.2733719,0.013444191,0.0,0.0,0,0.426766
-0.03414116,0.2445056,-0.31053165,-0.31703135,-0.27269968,0.013444148,0.0,0.0,0,0.427637
-0.03723993,0.23727252,-0.31053165,-0.32135138,-0.2720275,0.013444044,0.0,0.0,0,0.427905
-0.040338706,0.22994222,-0.31053165,-0.32567137,-0.2713553,0.013444059,0.0,0.0,3,0.748780
-0.043358136,0.22248624,-0.30055544,-0.3316352,-0.27277416,-0.028376993,0.0,0.0,3,0.559800
-0.046290684,0.21490581,-0.28965953,-0.33758223,-0.27645972,-0.073711,0.0,0.0,3,0.135771
-0.049163245,0.20719221,-0.28203604,-0.3438212,-0.281812,-0.107046485,0.0,0.0,3,-0.028349
-0.05197096,0.19934529,-0.27383783,-0.3501112,-0.28894842,-0.14272812,0.0,0.0,3,-0.253064
-0.054717064,0.19136225,-0.26599586,-0.35653004,-0.2978162,-0.17735596,0.0,0.0,3,-0.381714
-0.057398796,0.18325783,-0.25794873,-0.36232188,-0.30838737,-0.21142426,0.0,0.0,3,-0.533760
-0.059991647,0.17501801,-0.24680796,-0.36892074,-0.32134527,-0.25915822,0.0,0.0,3,-0.823635
-0.06250124,0.16664551,-0.23637052,-0.37542102,-0.3365459,-0.30401266,0.0,0.0,3,-1.098575
-0.06493206,0.1581422,-0.22657439,-0.38187307,-0.35386333,-0.34634838,0.0,0.0,0,-1.412789
-0.06736193,0.14954546,-0.2265872,-0.3862169,-0.3711804,-0.34634122,0.0,0.0,0,-1.425577
-0.06979084,0.14085518,-0.22660065,-0.3905606,-0.38849708,-0.34633407,0.0,0.0,0,-1.441551
-0.0722187,0.1320714,-0.22661474,-0.39490417,-0.40581343,-0.3463269,0.0,0.0,0,-1.461278
-0.07464571,0.12319408,-0.22662942,-0.3992476,-0.4231294,-0.34631976,0.0,0.0,3,-1.557058
-0.07699852,0.11416591,-0.21732917,-0.40676832,-0.44263908,-0.39019406,0.0,0.0,3,-1.832800
-0.07926273,0.1049796,-0.20627484,-0.41480875,-0.4647496,-0.44221053,0.0,0.0,3,-2.062679
-0.08146639,0.09567025,-0.19897401,-0.4210884,-0.48849627,-0.4749338,0.0,0.0,3,-2.358387
-0.08360319,0.08622094,-0.19083661,-0.42828795,-0.51418966,-0.51386774,0.0,0.0,3,-2.621383
-0.08565521,0.076626785,-0.18058303,-0.4359453,-0.5422871,-0.56194925,0.0,0.0,3,-2.937237
-0.087647244,0.06689845,-0.17353024,-0.44299638,-0.5721224,-0.59670544,0.0,0.0,3,6.647653
-0.0895565,0.05700253,-0.16354355,-0.45195663,-0.6045832,-0.6492166,1.0,0.0,2,9.801378
-0.09114723,0.04964062,-0.14242251,-0.3357297,-0.6218864,-0.34175315,1.0,0.0,2,10.845193
-0.09215689,0.044386204,-0.100724414,-0.233627,-0.62220854,-0.0065127127,1.0,0.0,2,11.551776
-0.092555426,0.040987667,-0.054139763,-0.14431958,-0.60502934,0.343471,1.0,0.0,2,11.580963
-0.09260569,0.039374694,-0.031721067,-0.059760265,-0.5732988,0.63462156,1.0,0.0,2,7.234393
-0.09243212,0.038473044,-0.015192775,-0.02658821,-0.5354991,0.7559632,1.0,0.0,2,5.956183
-0.092072204,0.038230214,0.004329454,0.0012576071,-0.49947718,0.7204749,1.0,0.0,2,-12.811795
-0.09138365,0.03918515,0.03721106,0.053508554,-0.4641913,0.7057444,0.0,0.0,0,3.916739
-0.090690516,0.04005855,0.03712038,0.04913005,-0.4289096,0.7056606,0.0,0.0,0,3.908130
-0.089993,0.040850624,0.037033785,0.04475037,-0.39363086,0.70560163,0.0,0.0,0,3.897840
-0.08929157,0.041561447,0.036947932,0.040366467,-0.35835692,0.7055057,0.0,0.0,0,3.884836
-0.088586524,0.0421913,0.036865197,0.035980202,-0.3230878,0.70540965,0.0,0.0,0,3.868814
-0.08787842,0.0427404,0.036785655,0.03159171,-0.28782347,0.7053138,0.0,0.0,0,3.849171
-0.08716746,0.043208823,0.036709458,0.027201027,-0.25256392,0.70521814,0.0,0.0,0,3.825205
-0.08645411,0.043596637,0.03663674,0.022808224,-0.21730915,0.7051226,0.0,0.0,0,3.796281
-0.085738756,0.04390405,0.036567606,0.018413391,-0.18205915,0.70502716,0.0,0.0,0,3.761956
-0.08502178,0.044131074,0.036502197,0.014016614,-0.14681393,0.70493186,0.0,0.0,0,3.722146
-0.08430366,0.044277772,0.03644063,0.009617964,-0.111573465,0.70483655,0.0,0.0,0,3.677389
-0.08358459,0.04434422,0.036383007,0.005217535,-0.07633777,0.70474154,0.0,0.0,0,3.628890
-0.08286524,0.04433049,0.036329463,0.00081540796,-0.041106813,0.70464665,0.0,0.0,0,3.578599
-0.082145974,0.04423636,0.03628006,-0.0035883235,-0.0058806166,0.70455176,0.0,0.0,0,-2.339381
-0.081427,0.044062052,0.036234923,-0.007993565,0.029340828,0.70445704,0.0,0.0,0,-3.561727
-0.08070888,0.04380735,0.036194153,-0.012400231,0.06455756,0.7043625,0.0,0.0,0,-3.603635
-0.07999201,0.043472324,0.03615781,-0.01680823,0.09976958,0.7042682,0.0,0.0,0,-3.640278
-0.079276755,0.04305683,0.036126003,-0.021217443,0.13497688,0.7041739,0.0,0.0,0,-3.671394
-0.0785635,0.04256059,0.036098808,-0.025627766,0.17017947,0.70408,0.0,0.0,0,-3.697245
-0.07785253,0.041983735,0.03607629,-0.030039093,0.20537736,0.7039861,0.0,0.0,0,-3.718386
-0.07714434,0.041326057,0.03605851,-0.034451332,0.24057057,0.7038924,0.0,0.0,0,-3.735460
-0.076439284,0.040587198,0.036045544,-0.03886436,0.27575913,0.7037989,0.0,0.0,0,-3.749161
-0.07573786,0.039767157,0.036037434,-0.04327805,0.31094298,0.70370555,0.0,0.0,0,-3.760091
-0.07504034,0.03886565,0.036034256,-0.04769229,0.34612218,0.70361245,0.0,0.0,0,6.231222
-0.07434692,0.03788253,0.03603604,-0.052106977,0.38129672,0.70351934,0.0,1.0,0,-0.263226
-0.07378731,0.037352666,0.03411612,-0.030220343,0.40244582,0.41976118,0.0,1.0,0,1.505214
-0.0734808,0.03730954,0.027880266,-0.0027641377,0.4052457,0.055734403,0.0,1.0,0,1.137768
-0.07336597,0.037637483,0.023048658,0.017801153,0.39271563,-0.2508002,0.0,1.0,0,1.653612
-0.07334252,0.038079366,0.021046972,0.024644706,0.37271133,-0.40022483,0.0,1.0,0,2.300991
-0.0733099,0.038400803,0.021971762,0.01903205,0.3529221,-0.39580956,0.0,1.0,0,2.101442
-0.07325935,0.038615163,0.023067173,0.013835049,0.3340232,-0.3779774,0.0,1.0,0,-7.917250
-0.07320996,0.038736757,0.023082344,0.009486801,0.31512478,-0.37796813,0.0,0.0,0,2.022164
-0.073161505,0.038765725,0.023096712,0.0051383665,0.29622686,-0.37795886,0.0,0.0,0,1.950701
-0.07311392,0.038701925,0.023110269,0.00078975584,0.2773294,-0.37794966,0.0,0.0,0,1.873984
-0.07306719,0.03854557,0.023123017,-0.0035590192,0.25843236,-0.37794077,0.0,0.0,0,1.799937
-0.07302122,0.038296517,0.023134943,-0.007907948,0.23953576,-0.37793165,0.0,0.0,0,1.735227
-0.07297611,0.037954982,0.023146048,-0.012257026,0.22063963,-0.37792236,0.0,0.0,0,1.683049
-0.07293157,0.037520822,0.023156332,-0.016606232,0.20174398,-0.37791303,0.0,0.0,0,1.643157
-0.072887704,0.03699418,0.023165781,-0.020955563,0.1828488,-0.37790367,0.0,0.0,0,1.613621
-0.07284441,0.036375057,0.0231744,-0.025305007,0.16395408,-0.3778944,0.0,0.0,0,1.592075
-0.07280178,0.035663303,0.023182182,-0.029654553,0.14505981,-0.37788513,0.0,0.0,0,1.576454
-0.072759435,0.034859072,0.023189124,-0.03400419,0.12616603,-0.37787586,0.0,0.0,0,1.565072
-0.07271757,0.0339625,0.023195224,-0.03835391,0.10727271,-0.37786657,0.0,0.0,0,1.556745
-0.072676085,0.03297337,0.023200484,-0.042703696,0.088379845,-0.3778573,0.0,0.0,0,1.550575
-0.072634794,0.03189169,0.0232049,-0.047053542,0.06948746,-0.37784803,0.0,0.0,0,1.545881
-0.072593786,0.030717596,0.023208465,-0.051403448,0.05059552,-0.3778387,0.0,0.0,0,1.542208
-0.072552875,0.029451095,0.023211185,-0.055753395,0.031704046,-0.3778295,0.0,0.0,0,1.539180
-0.07251205,0.028092109,0.023213055,-0.06010336,0.01281304,-0.3778202,0.0,0.0,0,0.321013
-0.072471336,0.026640639,0.023214076,-0.06445335,-0.0060774926,-0.3778109,0.0,0.0,0,-2.244017
-0.072430514,0.02509676,0.023214245,-0.06880334,-0.024967574,-0.3778016,0.0,0.0,0,-2.246476
-0.0723896,0.023460397,0.023213563,-0.07315333,-0.043857194,-0.37779236,0.0,0.0,0,-2.249127
-0.072348595,0.021731624,0.023212034,-0.0775033,-0.06274634,-0.37778312,0.0,0.0,0,-2.252078
-0.0723073,0.019910298,0.023209656,-0.081853256,-0.08163503,-0.37777382,0.0,0.0,0,-2.255475
-0.07226582,0.017996632,0.023206431,-0.086203165,-0.100523256,-0.37776452,0.0,0.0,0,-2.259392
-0.07222404,0.01599034,0.02320236,-0.09055303,-0.11941102,-0.37775525,0.0,0.0,0,7.736082
-0.0721818,0.0138916345,0.023197444,-0.09490284,-0.13829832,-0.37774596,1.0,0.0,0,3.206926
-0.072059155,0.012459908,0.013579173,-0.06400864,-0.13887066,-0.010456329,1.0,0.0,0,4.457510
-0.071825504,0.011588153,0.006684605,-0.0372856,-0.12222281,0.33301014,1.0,0.0,0,4.229113
-0.071529485,0.011027393,0.0023760253,-0.022922132,-0.09514659,0.5415639,1.0,0.0,0,2.000797
-0.071259215,0.010342893,0.0011863144,-0.028979283,-0.06954862,0.5119591,1.0,0.0,0,-7.839960
-0.07098846,0.009569881,0.0011793354,-0.033354394,-0.04395184,0.5119359,0.0,0.0,0,2.160181
-0.07071762,0.00870832,0.0011744782,-0.037729602,-0.018356213,0.51191276,0.0,0.0,0,0.712395
-0.07044659,0.0077582453,0.0011717434,-0.042104866,0.007238246,0.51188964,0.0,0.0,0,-2.959120
-0.07017565,0.0067197657,0.0011711332,-0.046480168,0.03283156,0.51186657,0.0,0.0,0,-2.959785
-0.0699049,0.0055927373,0.0011726441,-0.05085546,0.058423724,0.51184344,0.0,0.0,0,11.869620
-0.069744304,0.0050643063,0.00896895,-0.023821058,0.06534326,0.1382566,0.0,1.0,0,2.177148
-0.06970777,0.0050454233,0.013930445,-0.0004359078,0.055125896,-0.20440924,0.0,1.0,0,0.811773
-0.06966047,0.0049133156,0.01439519,-0.0055449945,0.0455758,-0.19100197,0.0,1.0,0,0.758330
-0.06961317,0.004685185,0.014395744,-0.009872664,0.03602575,-0.19100073,0.0,1.0,0,-9.314721
-0.06956587,0.004361067,0.014396185,-0.014200338,0.02647577,-0.19099954,0.0,0.0,0,0.637970
-0.069518566,0.003940997,0.014396517,-0.018528014,0.016925849,-0.19099833,0.0,0.0,0,0.607613
-0.06947126,0.0034249402,0.014396739,-0.022855693,0.007375988,-0.19099715,0.0,0.0,0,0.152836
-0.069424056,0.0028128957,0.014396852,-0.027183374,-0.0021738107,-0.19099596,0.0,0.0,0,-1.336109
-0.06937675,0.0021047925,0.014396857,-0.031511053,-0.011723555,-0.19099477,0.0,0.0,0,-1.346091
-0.069329545,0.0013007378,0.014396748,-0.035838734,-0.02127324,-0.19099358,0.0,0.0,0,12.163930
-0.06921415,0.0008790946,0.008223574,-0.018713808,-0.017937265,0.06680525,1.0,0.0,0,0.103003
-0.06909561,0.00038199185,0.007945508,-0.022068016,-0.014016465,0.07848508,1.0,0.0,0,0.151194
-0.068973824,-0.00019082069,0.00767064,-0.025435107,-0.0095153395,0.09007879,1.0,0.0,0,0.201417
-0.06884871,-0.00083945034,0.007398934,-0.028815128,-0.0044381307,0.10159018,1.0,0.0,0,0.010403
-0.06872044,-0.0015641474,0.007130664,-0.032209214,0.0012104886,0.11300944,1.0,0.0,0,13.104324
-0.06870117,-0.0015695118,0.0019768227,-0.0002533849,0.0011824744,-0.00054762734,1.0,1.0,0,0.103042
-0.06869173,-0.001564219,0.00094227854,0.00022699764,0.0011853768,5.3034753e-05,1.0,1.0,0,0.089624
-0.06869097,-0.0015638614,7.344384e-05,4.8316133e-06,0.0011855387,1.1224731e-06,1.0,1.0,0,-0.018975
-0.068693444,-0.0015637898,-0.00025696668,-1.7710457e-06,0.0011894462,7.402614e-05,1.0,1.0,0,-0.284028
-0.06870546,-0.0014772438,-0.00041654916,0.0038414134,0.00041267023,-0.015538382,1.0,1.0,0,0.355516
-0.06870842,-0.0014720225,-0.00026099975,0.00022440101,0.00037439266,-0.0007662101,1.0,1.0,0,0.023372
-0.06870947,-0.0014723801,-0.000105103434,-2.3606037e-05,0.00037609463,3.2728884e-05,1.0,1.0,0,0.009477
-0.06870937,-0.0014723086,1.306646e-05,-1.927489e-06,0.0003759341,-3.5321984e-06,1.0,1.0,0,-0.002819
-0.06870899,-0.0014723086,4.23848e-05,1.7662107e-07,0.0003753285,-1.2146103e-05,1.0,1.0,0,0.001983
-0.0687087,-0.0014723086,2.3157347e-05,3.7055862e-08,0.00037500847,-6.6271614e-06,1.0,1.0,0,0.002193
-0.0687087,-0.0014723086,1.2417245e-06,-4.754341e-10,0.00037499808,-3.7462232e-07,1.0,1.0,0,-0.000563
-0.0687088,-0.0014723086,-6.677644e-06,-6.521489e-09,0.00037509672,1.9038123e-06,1.0,1.0,0,0.000189
-0.0687088,-0.0014723086,-4.716394e-06,-4.2726005e-09,0.0003751719,1.3454663e-06,1.0,1.0,0,0.000381
-0.0687088,-0.0014723086,-8.914838e-07,-1.0423399e-09,0.0003751901,2.6497997e-07,1.0,1.0,0,-0.401502
-0.06871853,-0.0013832593,-0.00016522364,0.0039587347,-0.00042104113,-0.015926355,1.0,1.0,0,0.356879
-0.06871919,-0.0013757491,-8.60388e-06,0.00033476102,-0.00047904236,-0.0011591407,1.0,1.0,0,0.030384
-0.06871939,-0.0013762498,-2.1327665e-05,-2.2775204e-05,-0.00047866706,8.566142e-06,1.0,1.0,0,0.001467
-0.06871958,-0.0013763213,-1.6339069e-05,-2.7341316e-06,-0.00047844194,4.9539944e-06,1.0,1.0,0,0.001292
-0.06871958,-0.0013763213,-3.660812e-06,1.1901797e-07,-0.00047842666,1.0478543e-06,1.0,1.0,0,0.000070
-0.06871958,-0.0013763213,2.8936206e-06,2.2737558e-08,-0.00047849884,-8.425217e-07,1.0,1.0,0,-0.000024
-0.06871958,-0.0013763213,3.0768065e-06,2.3568518e-09,-0.00047855685,-8.598437e-07,1.0,1.0,0,0.000199
-0.06871958,-0.0013763213,1.0489479e-06,6.7208494e-10,-0.00047859096,-3.0595055e-07,1.0,1.0,0,0.000072
-0.06871958,-0.0013763213,-3.1916647e-07,-2.2606965e-10,-0.0004785965,1.00975434e-07,1.0,1.0,0,-0.000024
-0.06871958,-0.0013763213,-5.488023e-07,-4.522324e-10,-0.00047860472,1.676058e-07,1.0,1.0,0,0.000030
-0.06871958,-0.0013763213,-2.5380808e-07,-1.7092532e-10,-0.00047860286,8.5196966e-08,1.0,1.0,0,0.000022
-0.06871958,-0.0013763213,1.6139172e-08,-4.0028092e-11,-0.00047862277,-2.3374756e-08,1.0,1.0,0,-0.000008
-0.06871958,-0.0013763213,9.50336e-08,5.607769e-11,-0.00047862716,-2.5930017e-08,1.0,1.0,0,0.000003
-0.06871958,-0.0013763213,5.5546252e-08,4.633632e-11,-0.0004786372,-1.893974e-08,1.0,1.0,0,0.000004
-0.06871958,-0.0013763213,1.0273943e-08,1.730117e-10,-0.00047863997,-2.3102222e-08,1.0,1.0,0,-0.000001
-0.06871958,-0.0013763213,-1.527432e-08,-1.5104219e-10,-0.0004786479,2.1410006e-08,1.0,1.0,0,0.000000
-0.06871958,-0.0013763213,-1.7069889e-08,-1.4321058e-11,-0.00047864314,2.1817876e-08,1.0,1.0,0,-0.000000
-0.06871958,-0.0013763213,-1.1283593e-08,1.4484361e-10,-0.00047865027,2.3157789e-08,1.0,1.0,0,0.000000
-0.06871958,-0.0013763213,-6.178747e-09,2.8213928e-10,-0.0004786516,1.901574e-08,1.0,1.0,0,-0.000001
-0.06871958,-0.0013763213,-3.0507863e-09,5.100654e-10,-0.0004786623,1.0314534e-08,1.0,1.0,0,-0.000000
-0.06871958,-0.0013763213,-1.7193702e-09,4.4156204e-10,-0.00047866424,6.598205e-09,1.0,1.0,0,-0.000000
-0.06871958,-0.0013763213,-9.949959e-10,7.23692e-10,-0.00047866628,4.58772e-09,1.0,1.0,0,-0.000001
-0.06871958,-0.0013763213,-2.3523832e-09,3.230349e-10,-0.00047867562,8.364671e-09,1.0,1.0,0,-0.000000
-0.06871958,-0.0013763213,-4.068029e-09,6.827953e-10,-0.0004786772,1.315487e-08,1.0,1.0,0,0.000000
-0.06871958,-0.0013763213,-3.2748624e-09,4.9576265e-10,-0.00047867306,7.3174555e-09,1.0,1.0,0,100
-0.004972172,1.4177577,-0.50364935,0.30389223,0.0057683783,0.11408429,0.0,0.0,0,-1.011490
-0.009944821,1.4245206,-0.5029679,0.30053708,0.0114058275,0.11276001,0.0,0.0,0,-1.017144
-0.0149177555,1.4311874,-0.5029859,0.29624888,0.017039903,0.1126921,0.0,0.0,0,-1.009415
-0.01989088,1.4377575,-0.5030025,0.29192293,0.02267327,0.1126778,0.0,0.0,0,-1.003762
-0.024864102,1.4442306,-0.503019,0.28759828,0.028305754,0.112660095,0.0,0.0,0,-0.998130
-0.029837513,1.4506068,-0.50303566,0.28327438,0.033937324,0.11264207,0.0,0.0,0,-0.992436
-0.034811117,1.4568864,-0.5030521,0.2789505,0.039568044,0.1126246,0.0,0.0,0,-0.986746
-0.03978491,1.4630691,-0.50306857,0.27462643,0.045197863,0.11260669,0.0,0.0,0,-0.981084
-0.044758894,1.4691551,-0.503085,0.2703023,0.0508268,0.11258908,0.0,0.0,0,-0.975411
-0.049733065,1.4751441,-0.5031013,0.26597798,0.056454856,0.11257132,0.0,0.0,0,-0.969756
-0.05470743,1.4810364,-0.50311756,0.26165354,0.062082034,0.11255369,0.0,0.0,0,-0.964106
-0.05968199,1.4868319,-0.5031337,0.25732896,0.06770831,0.11253609,0.0,0.0,0,-0.958476
-0.064656734,1.4925305,-0.50314987,0.25300425,0.07333372,0.112518586,0.0,0.0,0,-0.952872
-0.06963167,1.4981323,-0.50316584,0.24867944,0.07895827,0.11250113,0.0,0.0,0,-0.947251
-0.0746068,1.5036372,-0.5031818,0.2443545,0.08458194,0.11248374,0.0,0.0,0,-0.941675
-0.07958212,1.5090454,-0.5031976,0.24002942,0.090204746,0.112466395,0.0,0.0,0,-0.936087
-0.08455763,1.5143566,-0.50321335,0.23570423,0.09582669,0.11244911,0.0,0.0,0,-0.930551
-0.08953333,1.5195711,-0.503229,0.23137893,0.1014478,0.112431906,0.0,0.0,0,-0.924994
-0.09450922,1.5246886,-0.50324464,0.22705348,0.107068025,0.112414755,0.0,0.0,0,-0.919474
-0.0994854,1.5297093,-0.50326014,0.22272794,0.11268741,0.112397715,0.0,0.0,0,-0.913983
-0.10446167,1.5346333,-0.5032755,0.21840224,0.11830593,0.112380706,0.0,0.0,0,-0.908488
-0.109438136,1.5394602,-0.50329083,0.21407644,0.12392364,0.11236379,0.0,0.0,0,-0.903036
-0.114414886,1.5441905,-0.50330603,0.20975052,0.12954047,0.11234689,0.0,0.0,0,-0.897562
-0.119391724,1.5488236,-0.5033212,0.2054245,0.13515647,0.112330034,0.0,0.0,0,-0.892169
-0.12436886,1.5533602,-0.5033362,0.20109835,0.14077164,0.11231329,0.0,0.0,0,-0.831442
-0.12934408,1.5577785,-0.5031481,0.19582789,0.14638658,0.11229906,0.0,0.0,0,-0.878685
-0.1343193,1.5621,-0.5031475,0.19150527,0.15200153,0.11229873,0.0,0.0,0,-0.873395
-0.13929462,1.5663247,-0.50314695,0.18718265,0.15761645,0.11229863,0.0,0.0,0,-0.868173
-0.14426994,1.5704527,-0.50314635,0.18286005,0.16323139,0.11229853,0.0,0.0,0,-0.862940
-0.14924535,1.5744839,-0.50314575,0.17853743,0.16884632,0.112298355,0.0,0.0,0,-0.857738
-0.15422077,1.5784184,-0.5031451,0.17421483,0.17446123,0.11229803,0.0,0.0,0,-0.852553
-0.15919629,1.582256,-0.5031444,0.16989222,0.18007614,0.11229769,0.0,0.0,0,-0.847397
-0.16417179,1.5859969,-0.5031437,0.1655696,0.18569098,0.1122973,0.0,0.0,0,-0.842256
-0.1691473,1.589641,-0.5031431,0.161247,0.19130583,0.11229702,0.0,0.0,0,-0.837125
-0.17412281,1.5931883,-0.5031423,0.15692441,0.19692065,0.112296745,0.0,0.0,0,-0.832038
-0.17909852,1.5966387,-0.5031416,0.15260182,0.20253548,0.11229652,0.0,0.0,0,-0.826968
-0.18407421,1.5999923,-0.5031408,0.14827923,0.2081503,0.11229628,0.0,0.0,0,-0.821915
-0.18905,1.6032492,-0.5031399,0.14395665,0.21376511,0.11229603,0.0,0.0,0,-0.816903
-0.1940258,1.6064093,-0.50313914,0.13963407,0.21937989,0.11229579,0.0,0.0,0,-0.811895
-0.1990017,1.6094726,-0.50313824,0.1353115,0.22499464,0.11229555,0.0,0.0,0,-0.806933
-0.20397773,1.6124392,-0.5031374,0.13098893,0.23060943,0.112295344,0.0,0.0,0,-0.801961
-0.20895371,1.615309,-0.50313646,0.12666635,0.23622417,0.112295106,0.0,0.0,0,-0.797028
-0.2139298,1.6180818,-0.5031355,0.122343786,0.24183892,0.112294875,0.0,0.0,0,-0.792121
-0.21890597,1.6207579,-0.5031346,0.11802122,0.24745364,0.1122946,0.0,0.0,0,-0.787242
-0.2238822,1.6233373,-0.50313365,0.113698654,0.25306836,0.11229435,0.0,0.0,0,-0.782376
-0.22885852,1.6258198,-0.5031327,0.10937611,0.25868306,0.1122941,0.0,0.0,0,-0.777529
-0.23383489,1.6282054,-0.5031317,0.10505356,0.26429775,0.112293884,0.0,0.0,0,-0.772735
-0.2388113,1.6304946,-0.5031307,0.100731015,0.26991242,0.112293646,0.0,0.0,0,-0.767920
-0.24378781,1.6326866,-0.5031296,0.09640847,0.2755271,0.1122934,0.0,0.0,0,-0.763159
-0.24876443,1.6347821,-0.5031286,0.09208593,0.28114176,0.11229315,0.0,0.0,0,-0.758394
-0.2537411,1.6367806,-0.50312746,0.0877634,0.2867564,0.1122929,0.0,0.0,0,-0.753678
-0.25871783,1.6386825,-0.50312626,0.08344087,0.29237103,0.112292625,0.0,0.0,0,-0.748956
-0.26369467,1.6404874,-0.5031252,0.07911835,0.29798564,0.11229237,0.0,0.0,0,-0.744277
-0.26867157,1.6421956,-0.50312406,0.07479582,0.30360025,0.11229211,0.0,0.0,0,-0.739612
-0.2736486,1.6438069,-0.5031229,0.0704733,0.30921486,0.112291895,0.0,0.0,0,-0.734972
-0.27862567,1.6453215,-0.50312173,0.06615078,0.31482944,0.11229165,0.0,0.0,0,-0.730342
-0.28360286,1.6467392,-0.5031205,0.061828263,0.32044402,0.112291396,0.0,0.0,0,-0.725748
-0.28858012,1.6480603,-0.50311923,0.05750576,0.32605857,0.11229116,0.0,0.0,0,-0.721148
-0.29355747,1.6492845,-0.503118,0.053183254,0.33167312,0.1122909,0.0,0.0,0,-0.716584
-0.29853487,1.6504118,-0.50311667,0.048860755,0.33728763,0.112290636,0.0,0.0,0,-0.712042
-0.3035124,1.6514424,-0.50311536,0.04453826,0.34290215,0.1122904,0.0,0.0,0,-0.707511
-0.30849004,1.652376,-0.50311404,0.04021577,0.34851667,0.112290144,0.0,0.0,0,-0.703008
-0.31346774,1.653213,-0.5031127,0.035893284,0.35413116,0.112289906,0.0,0.0,0,-0.698532
-0.3184456,1.6539533,-0.50311124,0.031570807,0.35974565,0.11228963,0.0,0.0,0,-0.694046
-0.32342348,1.6545967,-0.50310993,0.027248336,0.3653601,0.112289414,0.0,0.0,0,-0.689596
-0.3284015,1.6551433,-0.5031085,0.022925872,0.37097457,0.112289175,0.0,0.0,0,-0.685158
-0.33337966,1.655593,-0.5031071,0.01860341,0.37658903,0.11228895,0.0,0.0,0,-0.680734
-0.33835787,1.6559459,-0.50310564,0.014280955,0.38220346,0.11228869,0.0,0.0,0,-0.676324
-0.3433362,1.656202,-0.50310415,0.009958505,0.3878179,0.11228845,0.0,0.0,0,-0.671933
-0.3483146,1.6563612,-0.50310266,0.0056360597,0.3934323,0.1122882,0.0,0.0,0,-0.667570
-0.35329318,1.6564237,-0.50310117,0.0013136201,0.3990467,0.11228796,0.0,0.0,0,-0.663212
-0.35827184,1.6563894,-0.5030996,-0.0030088134,0.4046611,0.112287715,0.0,0.0,0,-0.658866
-0.36325058,1.6562582,-0.50309813,-0.0073312414,0.41027546,0.11228748,0.0,0.0,0,-0.654548
-0.36822948,1.6560303,-0.5030965,-0.0116536645,0.41588983,0.11228722,0.0,0.0,0,-0.650212
-0.37320846,1.6557055,-0.5030949,-0.01597608,0.42150417,0.11228697,0.0,0.0,0,-0.645926
-0.37818757,1.6552839,-0.5030933,-0.02029849,0.4271185,0.11228673,0.0,0.0,0,-0.641638
-0.3831668,1.6547655,-0.5030917,-0.024620896,0.43273282,0.11228651,0.0,0.0,0,-0.637360
-0.3881461,1.6541502,-0.50309,-0.028943295,0.43834713,0.112286255,0.0,0.0,0,-0.633115
-0.3931256,1.6534382,-0.50308836,-0.033265688,0.44396144,0.112285994,0.0,0.0,0,-0.628847
-0.39810514,1.6526293,-0.5030866,-0.037588075,0.44957572,0.11228575,0.0,0.0,0,-0.624627
-0.40308484,1.6517236,-0.5030849,-0.04191046,0.45519,0.11228552,0.0,0.0,0,-0.620399
-0.40806466,1.6507211,-0.50308317,-0.046232834,0.46080422,0.11228527,0.0,0.0,0,-0.616188
-0.4130446,1.6496217,-0.50308144,-0.050555203,0.46641847,0.11228504,0.0,0.0,0,-0.611989
-0.41802463,1.6484256,-0.50307965,-0.054877564,0.47203273,0.112284765,0.0,0.0,0,-0.607815
-0.42300487,1.6471326,-0.50307786,-0.059199918,0.47764695,0.112284526,0.0,0.0,0,-0.603635
-0.4279852,1.6457429,-0.5030761,-0.063522264,0.48326117,0.112284265,0.0,0.0,0,-0.599454
-0.4329656,1.6442562,-0.5030743,-0.06784461,0.48887536,0.11228405,0.0,0.0,0,-0.595312
-0.43794623,1.6426728,-0.5030724,-0.07216694,0.49448955,0.11228381,0.0,0.0,0,-0.591154
-0.44292697,1.6409924,-0.50307053,-0.07648928,0.5001037,0.11228357,0.0,0.0,0,-0.587031
-0.44790778,1.6392152,-0.5030686,-0.08081159,0.5057179,0.112283334,0.0,0.0,0,-0.582914
-0.45288882,1.6373413,-0.5030667,-0.0851339,0.51133204,0.11228311,0.0,0.0,0,-0.578803
-0.45786992,1.6353705,-0.5030648,-0.0894562,0.5169462,0.11228289,0.0,0.0,0,-0.574716
-0.4628512,1.6333029,-0.50306284,-0.093778506,0.52256036,0.11228265,0.0,0.0,0,-0.570605
-0.46783262,1.6311384,-0.5030609,-0.09810079,0.52817446,0.11228242,0.0,0.0,0,-0.566528
-0.47281414,1.628877,-0.50305885,-0.10242307,0.53378856,0.11228214,0.0,0.0,0,-0.562451
-0.47779584,1.6265187,-0.5030569,-0.10674535,0.53940266,0.11228188,0.0,0.0,0,-0.558420
-0.48277768,1.6240638,-0.5030548,-0.111067615,0.54501677,0.11228166,0.0,0.0,0,-0.554370
-0.48775965,1.621512,-0.5030528,-0.11538987,0.5506308,0.11228138,0.0,0.0,0,-0.550326
-0.49274176,1.6188633,-0.5030507,-0.11971212,0.55624485,0.11228113,0.0,0.0,0,-0.546316
-0.49772406,1.616118,-0.5030486,-0.124034375,0.5618589,0.11228088,0.0,0.0,0,-0.542293
-0.5027064,1.6132755,-0.5030465,-0.1283566,0.56747293,0.11228067,0.0,0.0,0,-0.538299
-0.507689,1.6103362,-0.5030444,-0.13267884,0.573087,0.11228041,0.0,0.0,0,-0.534306
-0.51267177,1.6073,-0.5030423,-0.13700105,0.57870096,0.11228015,0.0,0.0,0,-0.530348
-0.5176546,1.6041672,-0.50304013,-0.14132327,0.58431494,0.11227991,0.0,0.0,0,-0.526374
-0.52263767,1.6009375,-0.5030379,-0.14564545,0.5899289,0.11227967,0.0,0.0,0,-0.522440
-0.52762085,1.597611,-0.50303566,-0.14996766,0.5955429,0.11227939,0.0,0.0,0,-0.518487
-0.53260416,1.5941873,-0.5030335,-0.15428983,0.6011569,0.11227916,0.0,0.0,0,-0.514582
-0.5375877,1.590667,-0.5030313,-0.15861201,0.6067708,0.11227894,0.0,0.0,0,-0.510691
-0.54257137,1.58705,-0.50302905,-0.1629342,0.61238474,0.112278715,0.0,0.0,0,-0.506792
-0.54755515,1.5833359,-0.50302684,-0.16725634,0.61799866,0.112278484,0.0,0.0,0,-0.502920
-0.5525391,1.579525,-0.5030245,-0.17157848,0.6236126,0.112278245,0.0,0.0,0,-0.499058
-0.55752325,1.5756171,-0.50302225,-0.17590064,0.6292265,0.11227801,0.0,0.0,0,-0.495229
-0.56250757,1.5716126,-0.5030199,-0.18022276,0.63484037,0.11227777,0.0,0.0,0,-0.491414
-0.56749207,1.5675111,-0.50301754,-0.18454489,0.64045423,0.112277545,0.0,0.0,0,-0.487605
-0.5724767,1.5633128,-0.5030152,-0.18886703,0.6460681,0.11227729,0.0,0.0,0,-0.483844
-0.5774615,1.5590177,-0.5030129,-0.19318914,0.65168196,0.112277076,0.0,0.0,0,-0.480073
-0.58244646,1.5546255,-0.5030105,-0.19751124,0.6572958,0.112276815,0.0,0.0,0,-0.476320
-0.58743155,1.5501364,-0.5030081,-0.20183334,0.6629096,0.112276554,0.0,0.0,0,-0.472635
-0.5924169,1.5455508,-0.5030057,-0.20615543,0.66852343,0.1122763,0.0,0.0,0,-0.468933
-0.59740245,1.5408682,-0.50300324,-0.21047752,0.67413723,0.112276055,0.0,0.0,0,-0.465262
-0.6023881,1.5360885,-0.5030008,-0.21479958,0.67975104,0.1122758,0.0,0.0,0,-0.461623
-0.6073739,1.5312121,-0.5029983,-0.21912163,0.68536484,0.11227556,0.0,0.0,0,-0.458006
-0.6123599,1.5262387,-0.5029958,-0.22344369,0.6909786,0.112275325,0.0,0.0,0,-0.454432
-0.6173461,1.5211686,-0.5029933,-0.22776572,0.69659233,0.1122751,0.0,0.0,0,-0.450879
-0.62233245,1.5160016,-0.5029908,-0.23208775,0.7022061,0.11227487,0.0,0.0,0,-0.447357
-0.62731904,1.5107377,-0.5029882,-0.23640975,0.7078198,0.11227465,0.0,0.0,0,-0.443853
-0.63230574,1.5053768,-0.5029856,-0.24073176,0.71343356,0.11227441,0.0,0.0,0,-0.440387
-0.6372926,1.499919,-0.502983,-0.24505377,0.71904725,0.112274155,0.0,0.0,0,-0.436983
-0.64227974,1.4943645,-0.5029804,-0.24937576,0.72466093,0.112273894,0.0,0.0,0,-0.433598
-0.647267,1.4887131,-0.5029778,-0.25369772,0.7302746,0.11227363,0.0,0.0,0,-0.430240
-0.65225446,1.4829648,-0.5029751,-0.25801972,0.7358883,0.11227341,0.0,0.0,0,-0.426925
-0.6572421,1.4771194,-0.5029725,-0.26234168,0.741502,0.11227314,0.0,0.0,0,-0.423659
-0.66223,1.4711772,-0.5029698,-0.26666364,0.7471156,0.1122729,0.0,0.0,0,-0.420452
-0.667218,1.4651383,-0.5029671,-0.27098554,0.75272924,0.112272695,0.0,0.0,0,-0.417269
-0.6722063,1.4590024,-0.50296444,-0.27530748,0.75834286,0.112272464,0.0,0.0,0,-0.414125
-0.67719465,1.4527695,-0.50296175,-0.27962935,0.7639565,0.11227222,0.0,0.0,0,-0.411048
-0.68218327,1.4464397,-0.502959,-0.28395125,0.7695701,0.112271965,0.0,0.0,0,-0.408012
-0.68717206,1.4400132,-0.5029563,-0.28827313,0.7751837,0.11227171,0.0,0.0,0,-0.405026
-0.6921611,1.4334897,-0.50295347,-0.29259497,0.78079724,0.11227147,0.0,0.0,0,-0.402103
-0.6971503,1.4268693,-0.50295067,-0.29691684,0.7864108,0.11227123,0.0,0.0,0,-0.399241
-0.7021397,1.420152,-0.50294787,-0.30123866,0.7920244,0.112270966,0.0,0.0,0,-0.396409
-0.70712924,1.4133376,-0.502945,-0.30556053,0.79763794,0.11227075,0.0,0.0,0,-0.393678
-0.71211904,1.4064265,-0.5029422,-0.30988234,0.80325145,0.11227049,0.0,0.0,0,-0.390984
-0.7171091,1.3994185,-0.50293934,-0.3142042,0.80886495,0.112270236,0.0,0.0,3,0.830635
-0.72203255,1.3924019,-0.49445638,-0.3133273,0.8118863,0.06042679,0.0,0.0,3,1.063772
-0.7268977,1.3853909,-0.48676175,-0.3117756,0.8122381,0.007035823,0.0,0.0,3,1.016470
-0.7317189,1.3783581,-0.4809857,-0.31176108,0.810606,-0.032641776,0.0,0.0,3,1.375484
-0.7364894,1.3713193,-0.47425947,-0.3108888,0.8066245,-0.07963004,0.0,0.0,3,1.421579
-0.7412159,1.3642544,-0.46851173,-0.3111405,0.8007373,-0.11774348,0.0,0.0,3,1.678608
-0.7458922,1.3571619,-0.4620517,-0.3114105,0.7928518,-0.1577104,0.0,0.0,3,1.903822
-0.75052017,1.3500508,-0.45566624,-0.31126088,0.78286624,-0.1997114,0.0,0.0,3,2.073620
-0.7551048,1.3429247,-0.44976202,-0.3110056,0.7708232,-0.24086197,0.0,0.0,3,2.214031
-0.75964564,1.3357711,-0.44392037,-0.31144205,0.75691867,-0.2780897,0.0,0.0,3,2.343772
-0.7641425,1.3285787,-0.43812776,-0.3124823,0.74132025,-0.3119689,0.0,0.0,3,2.647269
-0.7685948,1.3213716,-0.43194276,-0.31233346,0.7236676,-0.35305262,0.0,0.0,3,2.762460
-0.7730055,1.3141402,-0.42615467,-0.31277588,0.70417583,-0.38983622,0.0,0.0,3,3.423764
-0.7773431,1.3069053,-0.416452,-0.3119481,0.6819441,-0.44463474,0.0,0.0,3,3.526580
-0.7816143,1.2996498,-0.40760678,-0.31213248,0.65735245,-0.49183232,0.0,0.0,3,3.857813
-0.7858173,1.2923896,-0.39830485,-0.31163356,0.6301734,-0.54358155,0.0,0.0,3,3.849556
-0.7899654,1.2851044,-0.3906673,-0.31237328,0.6009612,-0.5842448,0.0,0.0,3,4.140037
-0.7940504,1.2777942,-0.3820187,-0.31315142,0.5695638,-0.62794924,0.0,0.0,3,4.429646
-0.7980675,1.2704642,-0.37266737,-0.31379098,0.5358395,-0.6744875,0.0,0.0,0,3.505335
-0.8020898,1.26305,-0.37259215,-0.31819198,0.5021178,-0.6744346,0.0,0.0,0,3.505477
-0.8061169,1.2555518,-0.372521,-0.32259458,0.46839875,-0.6743818,0.0,0.0,0,3.505534
-0.8101485,1.2479701,-0.37245414,-0.32699874,0.4346823,-0.6743289,0.0,0.0,0,3.505558
-0.8141843,1.2403047,-0.37239155,-0.33140436,0.4009685,-0.6742762,0.0,0.0,0,3.505499
-0.818224,1.232556,-0.37233335,-0.33581132,0.36725733,-0.67422336,0.0,0.0,0,3.505356
-0.82226735,1.2247245,-0.37227955,-0.34021956,0.33354878,-0.6741707,0.0,0.0,0,3.505174
-0.826314,1.2168101,-0.37223023,-0.34462893,0.2998429,-0.6741179,0.0,0.0,0,3.504920
-0.8303635,1.208813,-0.3721855,-0.34903938,0.26613963,-0.67406523,0.0,0.0,0,3.504620
-0.8344156,1.200733,-0.37214535,-0.35345072,0.23243904,-0.6740125,0.0,0.0,0,3.504237
-0.8384701,1.1925707,-0.37210983,-0.35786292,0.19874108,-0.67395973,0.0,0.0,0,3.503792
-0.8425265,1.1843259,-0.37207904,-0.3622759,0.16504574,-0.6739071,0.0,0.0,0,3.503272
-0.8465845,1.175999,-0.37205294,-0.36668947,0.13135304,-0.6738545,0.0,0.0,0,3.502710
-0.8506438,1.1675898,-0.37203154,-0.3711036,0.09766297,-0.67380184,0.0,0.0,0,3.502075
-0.8547041,1.1590983,-0.37201494,-0.37551817,0.06397554,-0.67374915,0.0,0.0,0,3.501359
-0.85876495,1.1505247,-0.37200314,-0.379933,0.030290743,-0.6736966,0.0,0.0,0,2.822299
-0.8628261,1.1418692,-0.3719961,-0.38434806,-0.0033914233,-0.67364395,0.0,0.0,0,-3.236180
-0.86688715,1.1331316,-0.37199387,-0.38876325,-0.037070967,-0.6735913,0.0,0.0,2,-2.201710
-0.8710484,1.1249856,-0.3815055,-0.36325407,-0.071290076,-0.6843826,0.0,0.0,2,0.214004
-0.87520695,1.1180986,-0.38103604,-0.30810797,-0.10579297,-0.69005847,0.0,0.0,2,0.363431
-0.8793166,1.112583,-0.3760175,-0.24797954,-0.14054728,-0.69508684,0.0,0.0,2,1.820061
-0.8831567,1.108494,-0.34980702,-0.18532066,-0.1747236,-0.6835268,0.0,0.0,2,-0.657863
-0.88691133,1.1056862,-0.34112027,-0.12919897,-0.2092478,-0.69048476,0.0,0.0,2,-1.072026
-0.8904459,1.1033363,-0.3199938,-0.10953297,-0.24312972,-0.67763895,0.0,0.0,2,-2.095925
-0.89387846,1.1015545,-0.31003872,-0.08504129,-0.27704552,-0.67831695,0.0,0.0,2,-0.955836
-0.8971048,1.100766,-0.28973088,-0.041646194,-0.31096163,-0.67832273,0.0,0.0,2,-2.348919
-0.9002012,1.1010079,-0.27662668,0.0033018368,-0.3453677,-0.6881218,0.0,0.0,2,-1.093850
-0.90295917,1.1022274,-0.24352005,0.046078477,-0.37942094,-0.68106467,0.0,0.0,0,-3.594428
-0.9057133,1.1033638,-0.24357155,0.04166733,-0.41347143,-0.6810102,0.0,0.0,0,-3.595779
-0.9084633,1.1044172,-0.24362767,0.037257414,-0.4475192,-0.68095577,0.0,0.0,0,-3.597156
-0.91120875,1.1053874,-0.24368834,0.03284883,-0.48156428,-0.6809014,0.0,0.0,0,-3.598524
-0.9139495,1.1062738,-0.24375348,0.028441686,-0.51560664,-0.68084705,0.0,0.0,0,-3.599936
-0.9166851,1.1070764,-0.24382302,0.02403607,-0.54964626,-0.6807927,0.0,0.0,0,-3.601353
-0.9194153,1.1077951,-0.24389692,0.019632088,-0.5836832,-0.6807384,0.0,0.0,1,-4.428359
-0.92221993,1.108505,-0.25415343,0.019607333,-0.6151054,-0.6284441,0.0,0.0,1,-4.114520
-0.92509425,1.1092077,-0.2637689,0.019779278,-0.64397025,-0.5772969,0.0,0.0,1,-3.843546
-0.9280374,1.1098974,-0.2731343,0.019788356,-0.6703492,-0.52757823,0.0,0.0,1,-3.464159
-0.9310364,1.1105784,-0.2809547,0.020034315,-0.6944254,-0.48152503,0.0,0.0,1,-3.165721
-0.934085,1.1112378,-0.28782684,0.019655306,-0.7164885,-0.44126216,0.0,0.0,0,-2.423347
-0.93713075,1.1118048,-0.28786653,0.015304094,-0.73855084,-0.4412473,0.0,0.0,0,-2.422952
-0.9401736,1.1122794,-0.28790727,0.010953472,-0.7606125,-0.4412326,0.0,0.0,0,-2.422569
-0.94321346,1.1126616,-0.28794903,0.0066034594,-0.78267336,-0.4412178,0.0,0.0,0,-2.422208
-0.94625026,1.112951,-0.2879917,0.002254068,-0.8047335,-0.44120303,0.0,0.0,0,-2.421842
-0.94928396,1.1131477,-0.28803542,-0.0020946877,-0.8267929,-0.4411882,0.0,0.0,2,3.001274
-0.95171493,1.1141526,-0.22801468,0.033503406,-0.8490178,-0.4444982,0.0,0.0,2,0.620645
-0.9537771,1.1154273,-0.19169064,0.045427743,-0.87096554,-0.43895492,0.0,0.0,2,1.603882
-0.9552382,1.1174484,-0.13183516,0.07828799,-0.8931128,-0.44294596,0.0,0.0,2,-1.322426
-0.9560316,1.1204575,-0.06502827,0.121640086,-0.9159307,-0.4563589,0.0,0.0,2,-5.670092
-0.9560583,1.1244502,0.011506646,0.16487269,-0.93923205,-0.4660274,0.0,0.0,2,-5.507697
-0.9557773,1.1289194,0.04218355,0.1855013,-0.9631196,-0.47775164,0.0,0.0,2,-8.441838
-0.95462745,1.1339186,0.12819271,0.20924929,-0.9863021,-0.46364865,0.0,0.0,2,-5.202678
-0.9530792,1.1389488,0.16720293,0.21081129,-1.008797,-0.44989914,0.0,0.0,2,-6.134985
-0.9512646,1.1444342,0.19381921,0.23041025,-1.0320764,-0.46558523,0.0,0.0,2,-9.150236
-0.948879,1.1506313,0.2508436,0.26138264,-1.0561407,-0.48128596,0.0,0.0,2,-11.322893
-0.94570696,1.1576712,0.32932168,0.2982121,-1.0809374,-0.49593624,0.0,0.0,2,-6.626445
-0.9420838,1.1647795,0.37364823,0.30138293,-1.105203,-0.48531395,0.0,0.0,2,-7.326294
-0.93806976,1.1723193,0.4124803,0.31998014,-1.1301124,-0.49819055,0.0,0.0,0,-2.552484
-0.93405074,1.1797652,0.41240993,0.31563717,-1.1550208,-0.49816924,0.0,0.0,0,-2.550949
-0.93002665,1.1871176,0.4123388,0.3112954,-1.1799282,-0.4981479,0.0,0.0,0,-2.549287
-0.9259975,1.1943755,0.41226682,0.3069548,-1.2048345,-0.49812657,0.0,0.0,0,-2.547551
-0.9219632,1.2015393,0.4121941,0.30261543,-1.2297397,-0.4981053,0.0,0.0,1,-2.394082
-0.9179529,1.208695,0.40854248,0.30346224,-1.2525604,-0.45641485,0.0,0.0,1,-2.206339
-0.9139705,1.2158809,0.40437922,0.30656996,-1.2724559,-0.39791197,0.0,0.0,1,-1.926331
-0.91001594,1.2230821,0.400465,0.3088735,-1.2897308,-0.34549755,0.0,0.0,1,-1.700589
-0.906085,1.2302778,0.39724612,0.30997315,-1.3048612,-0.30260754,0.0,0.0,1,-1.553544
-0.9021771,1.237511,0.39393756,0.3136081,-1.3169203,-0.24118224,0.0,0.0,1,-1.261827
-0.89828765,1.2447441,0.39140412,0.3150379,-1.3267515,-0.19662271,0.0,0.0,0,-1.065085
-0.8943974,1.2518804,0.39139232,0.31071594,-1.3365825,-0.19662139,0.0,0.0,0,-1.062876
-0.8905062,1.2589197,0.39138046,0.306394,-1.3464135,-0.19662008,0.0,0.0,0,-1.060613
-0.88661426,1.2658622,0.3913686,0.30207217,-1.3562444,-0.19661877,0.0,0.0,0,-1.058267
-0.8827215,1.2727076,0.3913567,0.29775038,-1.3660753,-0.19661748,0.0,0.0,0,-1.055890
-0.8788278,1.2794561,0.39134476,0.29342872,-1.3759061,-0.19661619,0.0,0.0,0,-1.053430
-0.87493336,1.2861078,0.3913328,0.28910705,-1.3857368,-0.19661489,0.0,0.0,0,-1.050947
-0.871038,1.2926625,0.39132082,0.28478557,-1.3955675,-0.19661358,0.0,0.0,0,-1.048370
-0.8671419,1.2991202,0.3913088,0.2804641,-1.4053981,-0.19661227,0.0,0.0,0,-1.045772
-0.8632449,1.3054807,0.39129677,0.27614275,-1.4152287,-0.19661096,0.0,0.0,0,-1.043114
-0.859347,1.3117445,0.39128473,0.27182144,-1.4250592,-0.19660966,0.0,0.0,0,-1.040427
-0.8554483,1.317911,0.39127266,0.26750022,-1.4348897,-0.19660833,0.0,0.0,0,-1.037683
-0.8515488,1.3239807,0.39126056,0.26317903,-1.44472,-0.19660705,0.0,0.0,0,-1.034889
-0.8476484,1.3299532,0.39124846,0.25885794,-1.4545503,-0.19660576,0.0,0.0,0,-1.032086
-0.84374714,1.3358288,0.39123636,0.25453696,-1.4643805,-0.19660442,0.0,0.0,0,-1.029231
-0.839845,1.3416073,0.3912242,0.25021604,-1.4742106,-0.19660309,0.0,0.0,0,-1.026347
-0.8359421,1.3472887,0.39121208,0.24589519,-1.4840407,-0.19660182,0.0,0.0,0,-1.023405
-0.8320383,1.3528728,0.39119992,0.24157444,-1.4938707,-0.19660053,0.0,0.0,0,-1.020485
-0.82813364,1.3583602,0.39118776,0.23725376,-1.5037007,-0.19659922,0.0,0.0,0,-1.017486
-0.8242281,1.3637502,0.39117557,0.23293315,-1.5135306,-0.19659792,0.0,0.0,0,-1.014502
-0.82032174,1.3690432,0.3911634,0.22861265,-1.5233605,-0.19659658,0.0,0.0,0,-1.011458
-0.8164145,1.374239,0.39115122,0.2242922,-1.5331903,-0.19659528,0.0,0.0,1,-1.066292
-0.8125137,1.3794609,0.3903269,0.22732282,-1.5402421,-0.14103538,0.0,0.0,1,-0.855758
-0.8086101,1.3846785,0.3905056,0.22853588,-1.545208,-0.09931918,0.0,0.0,1,-0.609506
-0.8047126,1.3899341,0.38979256,0.23228337,-1.5471271,-0.038382784,0.0,0.0,1,-0.387878
-0.8008091,1.3951905,0.39034578,0.23381172,-1.5468427,0.005688794,0.0,0.0,0,-0.005315
-0.7969055,1.4003496,0.3903458,0.22949171,-1.5465583,0.005688834,0.0,0.0,0,-0.002110
-0.793002,1.4054116,0.3903458,0.2251717,-1.5462738,0.005688905,0.0,0.0,0,0.001112
-0.7890985,1.4103764,0.3903458,0.22085167,-1.5459894,0.005688958,0.0,0.0,0,0.004362
-0.78519493,1.4152441,0.3903458,0.21653166,-1.545705,0.005688996,0.0,0.0,0,0.007615
-0.7812914,1.4200145,0.3903458,0.21221164,-1.5454205,0.0056890445,0.0,0.0,0,0.010893
-0.77738786,1.4246877,0.3903458,0.20789163,-1.5451361,0.0056890673,0.0,0.0,0,0.014171
-0.77348435,1.4292638,0.3903458,0.2035716,-1.5448517,0.0056891143,0.0,0.0,0,0.017463
-0.76958084,1.4337428,0.39034575,0.19925159,-1.5445672,0.0056891665,0.0,0.0,0,0.020769
-0.7656773,1.4381244,0.39034575,0.19493157,-1.5442828,0.0056891995,0.0,0.0,0,0.024075
-0.76177377,1.4424089,0.39034575,0.19061156,-1.5439984,0.005689237,0.0,0.0,0,0.027413
-0.7578702,1.446596,0.39034575,0.18629153,-1.5437139,0.0056892894,0.0,0.0,0,0.030718
-0.7539667,1.4506861,0.39034575,0.18197152,-1.5434295,0.0056893113,0.0,0.0,0,0.034053
-0.7500631,1.454679,0.39034575,0.1776515,-1.5431451,0.005689383,0.0,0.0,0,0.037386
-0.74615955,1.4585747,0.39034572,0.17333148,-1.5428606,0.0056894147,0.0,0.0,0,0.040725
-0.74225605,1.4623731,0.3903457,0.16901146,-1.5425762,0.0056894803,0.0,0.0,0,0.044067
-0.73835254,1.4660742,0.3903457,0.16469145,-1.5422918,0.0056895213,0.0,0.0,0,0.047401
-0.73444897,1.4696783,0.3903457,0.16037144,-1.5420073,0.0056895707,0.0,0.0,0,0.050733
-0.7305454,1.4731852,0.3903457,0.15605141,-1.5417229,0.0056896075,0.0,0.0,0,0.054080
-0.7266419,1.4765948,0.3903457,0.1517314,-1.5414385,0.0056896526,0.0,0.0,0,0.057413
-0.7227383,1.4799073,0.3903457,0.14741138,-1.541154,0.0056897113,0.0,0.0,0,0.060770
-0.71883476,1.4831223,0.3903457,0.14309137,-1.5408696,0.005689763,0.0,0.0,3,-0.003600
-0.7149312,1.4861054,0.39043882,0.13071704,-1.5436234,-0.05507803,0.0,0.0,3,-0.420315
-0.711017,1.4888554,0.39155874,0.11828579,-1.549443,-0.11639005,0.0,0.0,3,-0.620987
-0.70710397,1.491379,0.39145762,0.10627639,-1.5581629,-0.17439756,0.0,0.0,3,-0.861253
-0.703195,1.4937137,0.39098614,0.096479364,-1.568948,-0.21570265,0.0,0.0,3,-1.047251
-0.69929224,1.4958574,0.3902215,0.08656589,-1.5818433,-0.25790668,0.0,0.0,3,-1.306937
-0.6953943,1.4977742,0.38950896,0.07451616,-1.5976565,-0.3162647,0.0,0.0,0,-1.500656
-0.69149405,1.4995939,0.38947737,0.07019652,-1.6134695,-0.31625924,0.0,0.0,0,-1.497357
-0.6875916,1.5013161,0.3894458,0.06587721,-1.6292821,-0.31625378,0.0,0.0,0,-1.494062
-0.683687,1.5029409,0.38941425,0.06155823,-1.6450945,-0.31624836,0.0,0.0,0,-1.490762
-0.6797801,1.5044682,0.38938272,0.057239585,-1.6609067,-0.31624287,0.0,0.0,0,-1.487464
-0.675871,1.5058981,0.38935125,0.052921273,-1.6767186,-0.31623742,0.0,0.0,0,-1.484128
-0.67195976,1.5072305,0.3893198,0.04860329,-1.6925302,-0.316232,0.0,0.0,0,-1.480790
-0.6680463,1.5084652,0.38928843,0.044285636,-1.7083415,-0.31622654,0.0,0.0,0,-1.477441
-0.6641307,1.5096022,0.3892571,0.039968316,-1.7241526,-0.31622106,0.0,0.0,0,-1.474072
-0.6602129,1.5106415,0.38922584,0.035651322,-1.7399633,-0.31621557,0.0,0.0,0,-1.470700
-0.6562928,1.511583,0.38919464,0.031334665,-1.7557738,-0.31621015,0.0,0.0,0,-1.467313
-0.6523706,1.5124267,0.38916355,0.027018333,-1.771584,-0.3162047,0.0,0.0,0,-1.463923
-0.6484462,1.5131727,0.38913256,0.022702329,-1.787394,-0.31619924,0.0,0.0,0,-1.460493
-0.6445196,1.5138209,0.38910165,0.018386649,-1.8032037,-0.31619382,0.0,0.0,0,-1.457034
-0.6405909,1.5143709,0.38907084,0.014071297,-1.8190131,-0.31618837,0.0,0.0,3,-1.415204
-0.6366855,1.5147009,0.38575983,0.0025055644,-1.8376358,-0.3724531,0.0,0.0,3,-1.708592
-0.632803,1.5148045,0.38227534,-0.00940046,-1.8592037,-0.43135887,0.0,0.0,3,-1.995531
-0.62894,1.5147069,0.37915975,-0.019801296,-1.8831489,-0.47890383,0.0,0.0,3,-2.257387
-0.625095,1.5143971,0.37593275,-0.030737923,-1.9096688,-0.5303968,0.0,0.0,0,-2.496490
-0.62124425,1.5139871,0.37584853,-0.03503909,-1.9361874,-0.53037107,0.0,0.0,0,-2.492473
-0.61738765,1.5134766,0.37576506,-0.039338782,-1.9627047,-0.53034544,0.0,0.0,0,-2.488403
-0.6135253,1.5128652,0.3756824,-0.043637004,-1.9892206,-0.5303198,0.0,0.0,0,-2.484318
-0.60965717,1.5121529,0.3756007,-0.047933776,-2.0157354,-0.53029406,0.0,0.0,0,-2.480137
-0.6057835,1.5113394,0.37551993,-0.052229114,-2.0422487,-0.53026843,0.0,0.0,0,-2.475935
-0.6019043,1.5104244,0.37544018,-0.056523032,-2.0687609,-0.53024274,0.0,0.0,0,-2.471672
-0.59801966,1.5094078,0.37536147,-0.06081555,-2.0952718,-0.530217,0.0,0.0,0,-2.467320
-0.5941295,1.5082891,0.3752839,-0.06510668,-2.1217813,-0.5301913,0.0,0.0,0,-2.462959
-0.5902341,1.5070684,0.37520748,-0.069396466,-2.1482897,-0.5301657,0.0,0.0,0,-2.458486
-0.5863335,1.5057452,0.3751323,-0.07368491,-2.1747966,-0.53014,0.0,0.0,0,-2.454010
-0.58242786,1.5043195,0.3750584,-0.07797204,-2.2013023,-0.5301143,0.0,0.0,0,-2.449467
-0.57851714,1.5027912,0.37498587,-0.08225787,-2.2278068,-0.5300887,0.0,0.0,0,-2.444843
-0.57460153,1.50116,0.3749147,-0.086542435,-2.25431,-0.53006303,0.0,0.0,0,-2.440172
-0.57068104,1.4994256,0.37484494,-0.09082575,-2.2808118,-0.5300374,0.0,0.0,0,-2.435466
-0.5667559,1.4975882,0.3747767,-0.095107846,-2.3073125,-0.53001183,0.0,0.0,0,-2.430631
-0.5628261,1.495647,0.37471,-0.09938877,-2.3338118,-0.5299862,0.0,0.0,0,-2.425775
-0.55889183,1.493602,0.37464485,-0.10366853,-2.3603098,-0.5299605,0.0,0.0,0,-2.420849
-0.5549532,1.4914534,0.3745813,-0.10794715,-2.3868065,-0.5299349,0.0,0.0,0,-2.415878
-0.5510104,1.4892008,0.37451947,-0.11222466,-2.413302,-0.5299092,0.0,0.0,0,-2.410826
-0.54706335,1.4868438,0.37445933,-0.1165011,-2.4397962,-0.5298835,0.0,0.0,0,-2.405704
-0.54311234,1.4843826,0.37440097,-0.12077649,-2.466289,-0.52985793,0.0,0.0,0,-2.400528
-0.53915745,1.4818169,0.3743444,-0.12505087,-2.4927807,-0.52983224,0.0,0.0,0,-2.395292
-0.5351988,1.4791465,0.3742897,-0.12932427,-2.5192711,-0.5298067,0.0,0.0,0,-2.389972
-0.5312365,1.4763713,0.3742368,-0.1335967,-2.5457602,-0.52978104,0.0,0.0,0,-2.384609
-0.52727085,1.4734911,0.37418586,-0.13786823,-2.572248,-0.5297555,0.0,0.0,0,-2.379147
-0.5233018,1.4705057,0.37413687,-0.14213887,-2.5987344,-0.5297299,0.0,0.0,0,-2.373674
-0.51932955,1.4674153,0.3740898,-0.14640866,-2.6252196,-0.5297043,0.0,0.0,0,-2.368093
-0.5153543,1.4642195,0.37404478,-0.15067767,-2.6517036,-0.5296787,0.0,0.0,0,-2.362477
-0.511376,1.4609184,0.3740018,-0.15494587,-2.6781862,-0.5296531,0.0,0.0,0,-2.356788
-0.50739497,1.4575118,0.3739609,-0.15921333,-2.7046676,-0.52962744,0.0,0.0,0,-2.351035
-0.5034114,1.4539995,0.37392208,-0.1634801,-2.7311478,-0.5296019,0.0,0.0,0,-2.345206
-0.49942532,1.4503814,0.37388545,-0.16774623,-2.7576265,-0.5295763,0.0,0.0,0,-2.339316
-0.49543697,1.4466574,0.37385094,-0.1720117,-2.784104,-0.52955073,0.0,0.0,0,-2.333359
-0.49144644,1.4428275,0.37381858,-0.17627661,-2.8105803,-0.5295252,0.0,0.0,0,-2.327334
-0.48745388,1.4388913,0.37378845,-0.18054096,-2.8370552,-0.52949965,0.0,0.0,0,-2.321304
-0.48345947,1.4348494,0.37376052,-0.18480478,-2.863529,-0.5294741,0.0,0.0,0,-2.315146
-0.4794634,1.4307011,0.3737348,-0.18906814,-2.8900013,-0.52944845,0.0,0.0,0,-2.308972
-0.47546577,1.4264468,0.37371138,-0.19333108,-2.9164724,-0.52942294,0.0,0.0,0,-2.302717
-0.47146684,1.422086,0.37369022,-0.19759363,-2.9429424,-0.52939737,0.0,0.0,0,-2.296407
-0.4674666,1.4176191,0.37367135,-0.20185582,-2.969411,-0.5293718,0.0,0.0,0,-2.290028
-0.46346536,1.4130456,0.37365478,-0.20611769,-2.9958782,-0.5293462,0.0,0.0,0,-2.283596
-0.4594632,1.4083656,0.37364057,-0.2103793,-3.0223444,-0.5293207,0.0,0.0,0,-2.277097
-0.45546037,1.4035791,0.37362862,-0.21464068,-3.048809,-0.52929515,0.0,0.0,0,-2.270597
-0.45145696,1.3986864,0.373619,-0.21890187,-3.0752726,-0.5292696,0.0,0.0,0,-2.264007
-0.44745317,1.3936872,0.37361175,-0.22316292,-3.1017349,-0.52924407,0.0,0.0,0,-2.257337
-0.4434491,1.3885815,0.37360683,-0.22742388,-3.1281958,-0.5292185,0.0,0.0,0,-2.250639
-0.43944508,1.3833691,0.37360424,-0.23168476,-3.1546555,-0.529193,0.0,0.0,0,-2.243877
-0.4354411,1.3780503,0.373604,-0.23594563,-3.1811137,-0.52916753,0.0,0.0,0,-2.237085
-0.43143734,1.3726251,0.37360615,-0.24020648,-3.2075708,-0.529142,0.0,0.0,0,-2.230248
-0.42743403,1.3670934,0.37361062,-0.24446744,-3.2340267,-0.5291165,0.0,0.0,0,-2.223290
-0.4234313,1.361455,0.3736174,-0.24872848,-3.260481,-0.529091,0.0,0.0,0,-2.216374
-0.41942936,1.3557103,0.37362653,-0.25298965,-3.2869344,-0.5290655,0.0,0.0,0,-2.209396
-0.4154283,1.3498594,0.373638,-0.25725105,-3.3133864,-0.52904,0.0,0.0,0,-2.202331
-0.4114283,1.343902,0.37365183,-0.26151264,-3.339837,-0.52901447,0.0,0.0,0,-2.195238
-0.40742955,1.3378382,0.37366796,-0.2657745,-3.3662865,-0.52898896,0.0,0.0,0,-2.188124
-0.4034322,1.3316683,0.37368637,-0.27003667,-3.3927348,-0.52896345,0.0,0.0,0,-2.180926
-0.3994364,1.325392,0.3737071,-0.27429914,-3.4191816,-0.528938,0.0,0.0,0,-2.173698
-0.39544234,1.3190095,0.37373003,-0.278562,-3.4456272,-0.5289126,0.0,0.0,0,-2.166459
-0.39145023,1.312521,0.37375528,-0.28282532,-3.4720716,-0.52888715,0.0,0.0,0,-2.159140
-0.38746,1.3059266,0.37378272,-0.28708905,-3.4985147,-0.52886164,0.0,0.0,0,-2.151835
-0.38347203,1.2992263,0.3738124,-0.29135334,-3.5249565,-0.52883613,0.0,0.0,0,-2.144463
-0.37948638,1.2924201,0.3738443,-0.29561815,-3.551397,-0.52881074,0.0,0.0,0,-2.137055
-0.3755032,1.2855085,0.37387836,-0.29988354,-3.5778363,-0.5287853,0.0,0.0,0,-2.129595
-0.37152267,1.278491,0.37391454,-0.3041496,-3.6042743,-0.52875984,0.0,0.0,0,-2.122146
-0.3675449,1.2713683,0.3739529,-0.30841628,-3.630711,-0.5287343,0.0,0.0,0,-2.114600
-0.36357003,1.2641399,0.3739933,-0.31268364,-3.6571465,-0.5287089,0.0,0.0,0,-2.107068
-0.35959825,1.2568061,0.3740358,-0.31695175,-3.6835806,-0.5286834,0.0,0.0,0,-2.099503
-0.35562974,1.2493674,0.37408036,-0.3212206,-3.7100136,-0.528658,0.0,0.0,0,-2.091900
-0.35166454,1.2418237,0.3741269,-0.3254903,-3.7364452,-0.5286325,0.0,0.0,0,-2.084265
-0.34770283,1.2341751,0.37417543,-0.32976082,-3.7628756,-0.528607,0.0,0.0,0,-2.076604
-0.34374467,1.2264216,0.3742259,-0.3340322,-3.7893047,-0.5285816,0.0,0.0,0,-2.068918
-0.33979028,1.2185636,0.3742783,-0.33830452,-3.8157325,-0.52855617,0.0,0.0,0,-2.061202
-0.33583984,1.2106011,0.37433252,-0.3425778,-3.842159,-0.5285307,0.0,0.0,0,-2.053485
-0.3318933,1.2025344,0.37438858,-0.34685197,-3.8685844,-0.52850527,0.0,0.0,0,-2.045712
-0.32795095,1.1943636,0.37444645,-0.3511272,-3.8950083,-0.5284798,0.0,0.0,0,-2.037946
-0.32401285,1.186089,0.37450606,-0.35540345,-3.921431,-0.52845436,0.0,0.0,0,-2.030146
-0.32007915,1.1777105,0.37456736,-0.35968077,-3.9478526,-0.5284289,0.0,0.0,0,-2.022326
-0.31614986,1.1692286,0.3746304,-0.36395922,-3.9742727,-0.52840346,0.0,0.0,0,-2.014449
-0.31222516,1.1606431,0.37469497,-0.36823878,-4.0006914,-0.5283781,0.0,0.0,0,-2.006628
-0.30830517,1.1519544,0.37476113,-0.37251946,-4.027109,-0.52835274,0.0,0.0,0,-1.998729
-0.30439,1.1431626,0.37482888,-0.37680137,-4.0535254,-0.52832735,0.0,0.0,0,-1.990814
-0.30047965,1.134268,0.37489808,-0.38108447,-4.0799403,-0.5283019,0.0,0.0,0,-1.982931
-0.29657435,1.1252706,0.37496874,-0.38536882,-4.106354,-0.52827656,0.0,0.0,0,-1.974986
-0.29267415,1.1161709,0.37504077,-0.38965443,-4.1327667,-0.5282511,0.0,0.0,0,-1.967024
-0.28877917,1.1069689,0.37511414,-0.39394128,-4.159178,-0.5282258,0.0,0.0,0,-1.959088
-0.28488937,1.0976646,0.37518877,-0.39822945,-4.185588,-0.5282004,0.0,0.0,0,-1.951117
-0.28100497,1.0882587,0.37526464,-0.40251896,-4.2119966,-0.528175,0.0,0.0,0,-1.943157
-0.27712592,1.0787511,0.3753417,-0.40680984,-4.2384043,-0.5281496,0.0,0.0,0,-1.935155
-0.27325255,1.0691422,0.37541986,-0.411102,-4.2648106,-0.5281242,0.0,0.0,0,-1.927128
-0.26938462,1.059432,0.3754991,-0.41539562,-4.2912154,-0.52809894,0.0,0.0,0,-1.919139
-0.26552233,1.0496209,0.37557936,-0.4196906,-4.3176193,-0.5280736,0.0,0.0,0,-1.911103
-0.26166582,1.0397091,0.37566057,-0.42398703,-4.344022,-0.5280483,0.0,0.0,0,-1.903057
-0.25781503,1.0296967,0.37574267,-0.42828485,-4.370423,-0.52802294,0.0,0.0,0,-1.895021
-0.25397006,1.019584,0.3758256,-0.4325842,-4.396823,-0.5279976,0.0,0.0,0,-1.886978
-0.25013098,1.0093712,0.3759094,-0.43688497,-4.4232216,-0.52797234,0.0,0.0,0,-1.878913
-0.24629784,0.9990588,0.37599388,-0.44118726,-4.449619,-0.527947,0.0,0.0,0,-1.870855
-0.24247065,0.9886465,0.37607902,-0.44549102,-4.476015,-0.5279216,0.0,0.0,0,-1.862788
-0.23864946,0.9781351,0.37616476,-0.4497963,-4.50241,-0.5278963,0.0,0.0,0,-1.854706
-0.23483428,0.9675247,0.37625104,-0.45410308,-4.5288033,-0.52787095,0.0,0.0,0,-1.846646
-0.23102522,0.95681536,0.37633783,-0.4584114,-4.555196,-0.5278456,0.0,0.0,0,-1.838537
-0.2272222,0.94600725,0.37642506,-0.4627213,-4.581587,-0.5278203,0.0,0.0,0,-1.830436
-0.22342534,0.9351009,0.37651262,-0.4670326,-4.6079764,-0.52779496,0.0,0.0,0,-1.822392
-0.21963462,0.9240965,0.3766005,-0.47134554,-4.634365,-0.5277697,0.0,0.0,0,-1.814258
-0.21585011,0.9129941,0.37668866,-0.47566003,-4.6607523,-0.52774435,0.0,0.0,0,-1.806133
-0.21207166,0.9017939,0.376777,-0.47997606,-4.687138,-0.5277191,0.0,0.0,0,-1.798076
-0.20829944,0.89049643,0.37686545,-0.4842936,-4.713523,-0.52769375,0.0,0.0,0,-1.789943
-0.20453334,0.8791017,0.37695396,-0.48861274,-4.7399063,-0.5276684,0.0,0.0,0,-1.781828
-0.20077343,0.8676101,0.37704247,-0.49293342,-4.7662883,-0.52764314,0.0,0.0,0,-1.773731
-0.19701967,0.85602164,0.37713093,-0.49725565,-4.7926693,-0.5276178,0.0,0.0,0,-1.765605
-0.19327202,0.8443368,0.37721926,-0.5015794,-4.819049,-0.52759254,0.0,0.0,0,-1.757485
-0.18953046,0.83255583,0.37730742,-0.5059048,-4.845427,-0.5275672,0.0,0.0,0,-1.749401
-0.18579511,0.8206789,0.37739533,-0.5102317,-4.871804,-0.52754194,0.0,0.0,0,-1.741285
-0.18206577,0.80870634,0.37748292,-0.5145601,-4.89818,-0.5275166,0.0,0.0,0,-1.733159
-0.17834254,0.7966384,0.37757018,-0.51889,-4.9245543,-0.52749133,0.0,0.0,0,-1.725056
-0.1746253,0.784475,0.377657,-0.5232215,-4.9509277,-0.527466,0.0,0.0,0,-1.716939
-0.17091398,0.77221686,0.3777433,-0.52755445,-4.9772997,-0.5274407,0.0,0.0,0,-1.708849
-0.16720867,0.7598638,0.37782907,-0.531889,-5.0036707,-0.52741545,0.0,0.0,0,-1.700734
-0.16350937,0.7474164,0.37791422,-0.5362251,-5.0300403,-0.52739024,0.0,0.0,0,-1.692607
-0.15981588,0.73487467,0.3779987,-0.5405626,-5.0564084,-0.52736497,0.0,0.0,0,-1.684514
-0.15612812,0.7222388,0.37808245,-0.54490167,-5.0827756,-0.52733964,0.0,0.0,0,-1.676398
-0.15244599,0.70950925,0.37816542,-0.5492422,-5.1091413,-0.52731436,0.0,0.0,0,-1.668246
-0.14876966,0.69668585,0.37824756,-0.55358416,-5.1355057,-0.52728903,0.0,0.0,0,-1.660174
-0.14509878,0.68376917,0.37832877,-0.55792755,-5.161869,-0.52726376,0.0,0.0,0,-1.652041
-0.14143352,0.67075926,0.37840906,-0.5622724,-5.188231,-0.52723855,0.0,0.0,0,-1.643921
-0.1377738,0.6576565,0.37848836,-0.5666187,-5.2145915,-0.52721334,0.0,0.0,0,-1.635844
-0.13411942,0.64446104,0.37856656,-0.5709663,-5.240951,-0.5271881,0.0,0.0,0,-1.627713
-0.13047037,0.631173,0.37864363,-0.57531524,-5.267309,-0.5271629,0.0,0.0,0,-1.619590
-0.12682648,0.6177927,0.37871954,-0.5796655,-5.293666,-0.52713764,0.0,0.0,0,-1.611503
-0.123187825,0.6043202,0.37879425,-0.58401704,-5.3200216,-0.52711236,0.0,0.0,0,-1.603387
-0.11955424,0.5907558,0.37886766,-0.58837,-5.346376,-0.52708715,0.0,0.0,0,-1.595252
-0.115925506,0.5770997,0.37893975,-0.59272414,-5.372729,-0.527062,0.0,0.0,0,-1.587184
-0.11230163,0.56335205,0.37901047,-0.5970796,-5.3990808,-0.5270368,0.0,0.0,0,-1.579075
-0.10868263,0.5495131,0.37907976,-0.6014363,-5.4254313,-0.5270115,0.0,0.0,0,-1.571003
-0.10506811,0.5355831,0.37914756,-0.6057942,-5.451781,-0.52698624,0.0,0.0,0,-1.562875
-0.10145817,0.521562,0.37921384,-0.61015326,-5.478129,-0.526961,0.0,0.0,0,-1.554761
-0.09785261,0.50745016,0.37927857,-0.61451346,-5.5044756,-0.5269358,0.0,0.0,0,-1.546701
-0.09425135,0.49324775,0.37934166,-0.6188748,-5.5308213,-0.52691066,0.0,0.0,2,3.041101
-0.09100904,0.4797661,0.34353784,-0.5874054,-5.556656,-0.51669216,0.0,0.0,2,3.548717
-0.08820562,0.4670598,0.2998989,-0.55340487,-5.582221,-0.5113045,0.0,0.0,2,0.924095
-0.08572426,0.45463666,0.26841396,-0.54099506,-5.608167,-0.5189253,0.0,0.0,2,1.076712
-0.08362655,0.44251835,0.23097308,-0.5275497,-5.634722,-0.53109986,0.0,0.0,2,0.543198
-0.08185778,0.4306798,0.19893251,-0.5152956,-5.661786,-0.5412797,0.0,0.0,2,1.137970
-0.08024015,0.41943392,0.1836919,-0.48961273,-5.688181,-0.52789426,0.0,0.0,2,4.403302
-0.079315186,0.4092114,0.115426645,-0.44425642,-5.7152915,-0.542208,0.0,0.0,2,2.684415
-0.07878838,0.39989722,0.075915486,-0.40434483,-5.7422867,-0.53990626,0.0,0.0,2,0.159246
-0.0786294,0.3910035,0.04006872,-0.38586566,-5.769917,-0.5526048,0.0,0.0,2,-0.031263
-0.07851963,0.38259646,0.034913577,-0.36490214,-5.796862,-0.53890216,0.0,0.0,2,0.582011
-0.078687,0.3747991,0.0076461085,-0.33820358,-5.823921,-0.54118043,0.0,0.0,2,1.496198
-0.07913189,0.36788452,-0.019937452,-0.2994664,-5.850791,-0.53739667,0.0,0.0,0,-2.448412
-0.07957945,0.3608815,-0.019897524,-0.30384165,-5.8776593,-0.5373699,0.0,0.0,0,-2.440887
-0.08002939,0.3537901,-0.019859843,-0.30821759,-5.9045267,-0.53734314,0.0,0.0,0,-2.433416
-0.08048181,0.34661037,-0.019824428,-0.3125942,-5.9313927,-0.53731644,0.0,0.0,0,-2.426044
-0.080936335,0.33934236,-0.019791313,-0.31697142,-5.958257,-0.53728974,0.0,0.0,0,-2.418796
-0.08139286,0.3319863,-0.019760514,-0.32134923,-5.9851203,-0.537263,0.0,0.0,0,-2.411677
-0.0818512,0.32454237,-0.019732056,-0.32572755,-6.011982,-0.5372363,0.0,0.0,0,-2.404727
-0.08231125,0.31701037,-0.019705962,-0.33010638,-6.0388427,-0.5372096,0.0,0.0,0,-2.397887
-0.082772925,0.30939046,-0.019682242,-0.33448565,-6.065702,-0.53718287,0.0,0.0,0,-2.391210
-0.083235934,0.3016827,-0.01966092,-0.3388653,-6.09256,-0.53715616,0.0,0.0,0,-2.384714
-0.08370008,0.29388714,-0.019642012,-0.34324533,-6.119416,-0.53712946,0.0,0.0,0,-2.378431
-0.08416519,0.2860039,-0.019625533,-0.3476256,-6.146271,-0.53710276,0.0,0.0,2,2.303188
-0.08461332,0.2791654,-0.018386213,-0.30171427,-6.172569,-0.5259553,0.0,0.0,2,-0.204859
-0.08514881,0.27283838,-0.026844585,-0.27943495,-6.19906,-0.5298213,0.0,0.0,2,3.362206
-0.085715964,0.26785147,-0.030188465,-0.22035922,-6.225326,-0.52531976,0.0,0.0,2,3.320428
-0.08618269,0.26417285,-0.020805998,-0.16269237,-6.250879,-0.5110513,0.0,0.0,0,-2.645996
-0.08664942,0.26040566,-0.020802002,-0.16706786,-6.27643,-0.51102835,0.0,0.0,0,-2.638710
-0.08711624,0.25655007,-0.020800132,-0.1714434,-6.3019805,-0.5110053,0.0,0.0,0,-2.631420
-0.08758297,0.2526059,-0.02080039,-0.17581892,-6.3275294,-0.5109822,0.0,0.0,0,-2.624267
-0.088049315,0.2485732,-0.020802777,-0.18019442,-6.3530774,-0.5109592,0.0,0.0,0,-2.617196
-0.08851538,0.2444519,-0.020807285,-0.18456988,-6.3786244,-0.51093614,0.0,0.0,0,-2.610168
-0.08898087,0.24024196,-0.020813923,-0.18894525,-6.40417,-0.5109132,0.0,0.0,2,-0.184433
-0.089382745,0.2365554,-0.014586466,-0.16612133,-6.429654,-0.50967836,0.0,0.0,2,-0.361621
-0.08967924,0.23335484,-0.0043869126,-0.1449303,-6.4549193,-0.5053082,0.0,0.0,2,1.633761
-0.089662075,0.23117366,0.026045114,-0.0999359,-6.4793453,-0.4885211,0.0,0.0,0,-2.653379
-0.08964386,0.22890301,0.026031401,-0.10430585,-6.5037704,-0.48850098,0.0,0.0,0,-2.646206
-0.0896245,0.22654302,0.026015863,-0.10867556,-6.5281944,-0.4884809,0.0,0.0,0,-2.638934
-0.0896039,0.2240935,0.025998512,-0.113045,-6.5526175,-0.48846084,0.0,0.0,1,-2.059381
-0.08967371,0.22158316,0.014454981,-0.115670875,-6.57464,-0.44044852,0.0,0.0,1,-1.910259
-0.08982668,0.21901976,0.0038211432,-0.117875926,-6.5943913,-0.3950285,0.0,0.0,1,-1.790952
-0.09005098,0.21640407,-0.0053737946,-0.12001445,-6.612136,-0.35489428,0.0,0.0,0,-1.967450
-0.09027443,0.21369511,-0.005386337,-0.124359936,-6.6298804,-0.3548866,0.0,0.0,0,-1.959497
-0.09049692,0.21089295,-0.005399556,-0.12870526,-6.6476245,-0.35487893,0.0,0.0,0,-1.951611
-0.09071846,0.20799746,-0.0054134442,-0.13305043,-6.665368,-0.3548712,0.0,0.0,0,-1.943803
-0.09093895,0.20500854,-0.0054280018,-0.13739541,-6.683111,-0.3548635,0.0,0.0,0,-1.936101
-0.09115829,0.20192637,-0.00544322,-0.14174023,-6.700854,-0.3548558,0.0,0.0,1,-1.535151
-0.091462135,0.19879712,-0.016193725,-0.14334746,-6.7162123,-0.3071697,0.0,0.0,1,-1.239493
-0.091849804,0.19564484,-0.02707327,-0.14376177,-6.728973,-0.25521275,0.0,0.0,1,-1.197273
-0.09230442,0.19244121,-0.035604306,-0.14556126,-6.7397814,-0.21616629,0.0,0.0,0,-1.224739
-0.09275846,0.18914181,-0.03561078,-0.14989023,-6.7505894,-0.21616454,0.0,0.0,0,-1.218446
-0.09321213,0.18574663,-0.035617393,-0.15421915,-6.7613974,-0.2161628,0.0,0.0,0,-1.212278
-0.09366532,0.18225561,-0.035624154,-0.15854801,-6.7722054,-0.21616106,0.0,0.0,0,-1.206266
-0.09411802,0.17866868,-0.03563105,-0.16287683,-6.7830133,-0.2161593,0.0,0.0,0,-1.200450
-0.09457016,0.17498603,-0.035638094,-0.1672056,-6.7938213,-0.21615753,0.0,0.0,1,-0.957715
-0.09508286,0.17125441,-0.04336413,-0.16882543,-6.8027806,-0.17918806,0.0,0.0,1,-0.641411
-0.09567241,0.16750582,-0.053326152,-0.1687665,-6.8091865,-0.12811863,0.0,0.0,1,-0.522659
-0.09633169,0.16372205,-0.062259268,-0.16959663,-6.8133836,-0.083939925,0.0,0.0,1,-0.365992
-0.097049996,0.15989429,-0.06979648,-0.17091678,-6.8157053,-0.0464376,0.0,0.0,1,-0.265057
-0.09782515,0.15600945,-0.07697491,-0.17287512,-6.816336,-0.012619083,0.0,0.0,1,-0.013109
-0.09867535,0.15209728,-0.08656056,-0.17326757,-6.81456,0.035522785,0.0,0.0,1,0.109598
-0.09960556,0.14814535,-0.09666681,-0.17421912,-6.810395,0.08330075,0.0,0.0,1,0.364351
-0.10061655,0.14416717,-0.10698386,-0.17453934,-6.803684,0.13421057,0.0,0.0,1,0.609605
-0.10168781,0.14015394,-0.114796296,-0.17546067,-6.7949777,0.17413047,0.0,0.0,1,0.760724
-0.10281496,0.13609701,-0.122015715,-0.17686182,-6.7844706,0.21014328,0.0,0.0,0,0.952679
-0.103941634,0.13194416,-0.12202253,-0.18119006,-6.7739635,0.21014173,0.0,0.0,0,0.950346
-0.10506783,0.12769547,-0.12202921,-0.18551832,-6.7634563,0.21014011,0.0,0.0,0,0.947419
-0.106193446,0.1233508,-0.122035764,-0.18984666,-6.752949,0.21013848,0.0,0.0,0,0.943744
-0.107318684,0.118910275,-0.122042194,-0.19417503,-6.7424426,0.21013689,0.0,0.0,0,0.939367
-0.10844354,0.11437383,-0.122048475,-0.19850346,-6.731936,0.21013527,0.0,0.0,0,0.934154
-0.109567925,0.10974155,-0.122054614,-0.20283194,-6.7214293,0.21013367,0.0,0.0,0,0.928016
-0.11069193,0.105013356,-0.12206064,-0.20716046,-6.7109227,0.21013208,0.0,0.0,0,0.920866
-0.11181555,0.10018931,-0.12206654,-0.21148899,-6.700416,0.21013045,0.0,0.0,2,3.554866
-0.112793066,0.095853865,-0.10740153,-0.18987451,-6.6900244,0.20783174,0.0,0.0,2,5.509158
-0.11340342,0.092245825,-0.07124405,-0.15746687,-6.679082,0.2188508,0.0,0.0,0,0.881382
-0.11401339,0.088542014,-0.07125001,-0.16179629,-6.6681395,0.21884899,0.0,0.0,0,0.877845
-0.11462307,0.08474251,-0.071255796,-0.16612574,-6.657197,0.21884719,0.0,0.0,3,0.718535
-0.11515389,0.08079494,-0.061283045,-0.173325,-6.648511,0.17372088,0.0,0.0,3,0.468832
-0.115620516,0.0767094,-0.053162485,-0.17993803,-6.641653,0.13715553,0.0,0.0,3,0.193380
-0.11599608,0.07247651,-0.041658796,-0.18711065,-6.6373305,0.08645318,0.0,0.0,3,-0.037698
-0.11629085,0.06811395,-0.03154,-0.19338673,-6.6351643,0.04332482,0.0,0.0,3,-0.329240
-0.116511345,0.0636165,-0.022176754,-0.1998567,-6.635038,0.0025264374,0.0,0.0,3,-0.567186
-0.11666975,0.058982573,-0.01427657,-0.20633759,-6.636678,-0.03280403,0.0,0.0,3,-0.800669
-0.116753004,0.05421432,-0.0048125,-0.21279165,-6.640375,-0.07394256,0.0,0.0,3,-1.003560
-0.11678114,0.049309812,0.002213745,-0.21923584,-6.6456714,-0.10592113,0.0,0.0,0,-0.778394
-0.116809085,0.04430853,0.0022124916,-0.22355808,-6.6509676,-0.105920896,0.0,0.0,0,-0.792872
-0.11683693,0.03921033,0.0022112215,-0.2278803,-6.656264,-0.10592069,0.0,0.0,0,16.447494
-0.1168807,0.035199102,-0.015306899,-0.17546992,-6.6447186,0.2308754,1.0,0.0,2,10.248646
-0.11672773,0.032808576,-0.011895406,-0.09983046,-6.615647,0.58219934,1.0,0.0,2,8.332515
-0.11646061,0.03141447,-0.011853091,-0.053594645,-6.5755963,0.8010257,1.0,0.0,2,6.397926
-0.11614332,0.030598436,-0.008801794,-0.028666608,-6.534036,0.83121634,1.0,0.0,2,3.466535
-0.115698434,0.031159911,0.0060264384,0.03105291,-6.4950113,0.7805013,1.0,0.0,0,-5.631044
-0.11525087,0.031643998,0.005980226,0.02660474,-6.4559903,0.78042006,0.0,0.0,0,4.367196
-0.11480103,0.032050762,0.005941539,0.022155484,-6.4169736,0.7803381,0.0,0.0,0,4.363067
-0.11434927,0.03238028,0.0059104376,0.017705327,-6.377961,0.780258,0.0,0.0,0,4.353735
-0.11389637,0.032632694,0.0058869775,0.01325447,-6.338953,0.78017634,0.0,0.0,0,4.331332
-0.1134428,0.032808002,0.0058711977,0.008803125,-6.2999487,0.7800945,0.0,0.0,0,4.268881
-0.112989046,0.03290635,0.0058631087,0.004351472,-6.260948,0.7800126,0.0,0.0,0,4.086339
-0.11253567,0.032927524,0.005862719,-0.0001002818,-6.221952,0.7799308,0.0,0.0,0,3.787773
-0.11208324,0.03287159,0.0058700354,-0.004551932,-6.1829596,0.77984893,0.0,0.0,0,3.613059
-0.111632064,0.03273855,0.0058850427,-0.009003282,-6.1439714,0.77976716,0.0,0.0,0,3.553603
-0.11118288,0.032528266,0.0059077046,-0.013454133,-6.1049876,0.7796854,0.0,0.0,0,3.531972
-0.11073618,0.03224052,0.005937998,-0.017904283,-6.066008,0.7796036,0.0,0.0,0,3.522850
-0.11029234,0.031875238,0.0059758765,-0.022353532,-6.0270324,0.7795219,0.0,0.0,0,13.518582
-0.10985203,0.031432208,0.00602127,-0.026801694,-5.988061,0.77944016,0.0,1.0,0,4.429064
-0.10961008,0.03150731,0.0035126146,-0.0013913612,-5.967674,0.4062489,0.0,1.0,0,-1.515152
-0.10960541,0.03197287,-0.0010768329,0.020323,-5.966127,0.030838793,0.0,1.0,0,-2.510289
-0.10975456,0.032679472,-0.004188423,0.033692326,-5.977287,-0.22324233,0.0,1.0,0,-0.472401
-0.10988102,0.033268914,-0.0029472841,0.02820647,-5.987312,-0.20050378,0.0,1.0,0,-10.598919
-0.11000786,0.03376237,-0.0029435824,0.023878228,-5.997337,-0.20050256,0.0,0.0,0,-0.597435
-0.110134795,0.03415998,-0.0029400033,0.019549964,-6.007362,-0.20050125,0.0,0.0,0,-0.596871
-0.110262014,0.034461603,-0.0029365516,0.015221673,-6.017387,-0.20049989,0.0,0.0,0,-0.598724
-0.110389516,0.034667384,-0.0029332223,0.010893362,-6.027412,-0.20049849,0.0,0.0,3,-1.148348
-0.11044397,0.034808144,0.006309422,0.008259849,-6.0393887,-0.23953672,0.0,0.0,3,-2.220208
-0.1104146,0.034895692,0.016965538,0.006156006,-6.0536385,-0.2849991,0.0,0.0,3,-2.654702
-0.11029949,0.034908567,0.02777729,0.0030185496,-6.0700984,-0.32919565,0.0,0.0,0,-1.620115
-0.11018495,0.0348276,0.027784595,-0.0013241251,-6.086558,-0.32918948,0.0,0.0,0,-1.684468
-0.1100708,0.034653004,0.027791332,-0.0056668757,-6.103017,-0.32918337,0.0,0.0,0,-1.745182
-0.10995712,0.034384783,0.02779751,-0.010009698,-6.119476,-0.3291772,0.0,0.0,0,-1.798714
-0.10984383,0.03402294,0.027803123,-0.014352585,-6.1359344,-0.32917103,0.0,0.0,0,-1.843542
-0.109730914,0.03356739,0.02780817,-0.01869553,-6.1523924,-0.32916486,0.0,0.0,3,-3.049591
-0.10952425,0.03304504,0.03964696,-0.021662073,-6.1712675,-0.3775068,0.0,0.0,3,-3.087369
-0.109240815,0.032448944,0.04935597,-0.025049161,-6.192114,-0.4169311,0.0,0.0,3,-3.468727
-0.1088686,0.0317623,0.060510375,-0.029258307,-6.215188,-0.46148634,0.0,0.0,0,-2.451717
-0.10849676,0.030985603,0.060515147,-0.033623777,-6.2382617,-0.46146932,0.0,0.0,0,-2.470476
-0.10812521,0.030118713,0.060518343,-0.03798931,-6.2613344,-0.46145234,0.0,0.0,0,-2.487508
-0.10775375,0.029161701,0.060519952,-0.042354874,-6.284406,-0.46143547,0.0,0.0,3,-3.476297
-0.10730896,0.02810727,0.06971687,-0.047071695,-6.309319,-0.498255,0.0,0.0,3,-3.699527
-0.106786154,0.02696229,0.079468876,-0.051581305,-6.3361845,-0.5373103,0.0,0.0,3,-4.122785
-0.10617085,0.025711665,0.091058224,-0.056884237,-6.3653855,-0.5840214,0.0,0.0,3,-3.936323
-0.10549164,0.02436956,0.09898166,-0.061639555,-6.396179,-0.61587036,0.0,0.0,3,-4.396853
-0.104727745,0.02292324,0.10947411,-0.06711409,-6.4291067,-0.6585513,0.0,0.0,3,5.670403
-0.103896715,0.021387586,0.11767594,-0.07200388,-6.4636865,-0.6915988,1.0,0.0,3,-0.169640
-0.10293245,0.020582138,0.11563101,-0.0385442,-6.4822593,-0.3704481,1.0,0.0,3,0.407119
-0.10179214,0.020407615,0.116222724,-0.008073065,-6.4844236,-0.04322028,1.0,0.0,0,1.881928
-0.100570105,0.020744715,0.109938875,0.016592653,-6.4720535,0.24743605,1.0,0.0,0,1.409394
-0.09936686,0.02096394,0.109010264,0.01114059,-6.4606986,0.22709417,1.0,0.0,3,-9.837518
-0.098090455,0.021061502,0.11820586,0.0054372954,-6.451249,0.18899402,0.0,0.0,3,-0.235672
-0.09672823,0.021043906,0.12897642,2.020408e-05,-6.4439955,0.1450765,0.0,0.0,0,0.853821
-0.095365904,0.020929752,0.12897535,-0.004304134,-6.436742,0.14507595,0.0,0.0,0,0.841403
-0.09400348,0.02071918,0.1289743,-0.008628477,-6.429488,0.14507543,0.0,0.0,0,0.829082
-0.09264097,0.02041205,0.12897334,-0.012952826,-6.4222345,0.14507492,0.0,0.0,3,-0.210993
-0.09121151,0.020002995,0.13735503,-0.017669665,-6.4166636,0.11141406,0.0,0.0,3,-0.479090
-0.089709476,0.019479,0.14647916,-0.022960547,-6.412953,0.07421684,0.0,0.0,0,0.457978
-0.08820744,0.018857941,0.14647894,-0.02728169,-6.409242,0.074216746,0.0,0.0,0,0.447762
-0.0867054,0.018139968,0.14647873,-0.031602833,-6.4055314,0.07421668,0.0,0.0,0,0.437620
-0.085203364,0.017324863,0.14647852,-0.035923976,-6.4018207,0.074216604,0.0,0.0,0,0.427538
-0.08370123,0.016412769,0.14647833,-0.040245123,-6.39811,0.07421654,0.0,0.0,0,0.417460
-0.08219919,0.015403685,0.14647813,-0.04456627,-6.394399,0.07421648,0.0,0.0,0,0.407395
-0.08069706,0.014297542,0.14647794,-0.048887417,-6.3906884,0.0742164,0.0,0.0,0,0.397269
-0.079194926,0.013094411,0.14647774,-0.053208567,-6.3869777,0.074216366,0.0,0.0,0,0.387041
-0.07769279,0.0117942905,0.14647755,-0.057529707,-6.383267,0.07421631,0.0,0.0,0,0.376657
-0.07619057,0.010397038,0.14647739,-0.061850853,-6.379556,0.074216254,0.0,0.0,0,11.795546
-0.07465563,0.009163615,0.14312236,-0.05418752,-6.369245,0.20624153,1.0,0.0,0,1.153882
-0.07311773,0.0078550195,0.14285448,-0.057566993,-6.358403,0.21684735,1.0,0.0,0,1.196417
-0.07157707,0.006470964,0.14259414,-0.060978256,-6.3470407,0.22725639,1.0,0.0,0,1.581884
-0.07002306,0.0050738906,0.14169803,-0.061567806,-6.3334737,0.27136648,1.0,0.0,0,1.331684
-0.06847143,0.0035782193,0.14157891,-0.0660723,-6.320057,0.26833674,1.0,0.0,1,2.153847
-0.06698494,0.0019811965,0.13343172,-0.07067405,-6.3050137,0.30086434,1.0,0.0,1,2.347949
-0.065569684,0.00028253556,0.12447212,-0.0753292,-6.2881794,0.33668107,1.0,0.0,0,1.593670
-0.06415434,-0.0015094304,0.124471605,-0.07967292,-6.2713456,0.3366745,0.0,1.0,0,1.287936
-0.06286736,-0.003048339,0.12322326,-0.06857354,-6.266465,0.096927434,0.0,1.0,0,12.829952
-0.061707117,-0.0036517286,0.113346025,-0.026858259,-6.263826,0.052765995,1.0,1.0,0,1.010491
-0.0606863,-0.0033605837,0.1043513,0.012963857,-6.266088,-0.045264117,1.0,1.0,0,-0.727073
-0.059782885,-0.0024083995,0.09748741,0.042386707,-6.2731566,-0.14139001,1.0,1.0,0,-1.226114
-0.058945276,-0.0011121774,0.09347799,0.057653084,-6.2827697,-0.19228111,1.0,1.0,0,-0.515123
-0.05808697,5.2437783e-05,0.09425868,0.05173992,-6.2910914,-0.16643783,1.0,1.0,0,-10.546077
-0.057228662,0.0011207795,0.09425846,0.047415014,-6.2994127,-0.1664252,1.0,0.0,0,-0.521171
-0.0563673,0.0021128391,0.09399928,0.043987706,-6.307187,-0.15548685,1.0,0.0,0,-0.475911
-0.05550308,0.0030289746,0.093735024,0.04058105,-6.3144073,-0.1444077,1.0,0.0,0,-0.429871
-0.05463581,0.0038693284,0.09346586,0.037194315,-6.321067,-0.13319339,1.0,0.0,0,-0.383153
-0.053765584,0.004634223,0.093192086,0.03382666,-6.3271594,-0.12185061,1.0,0.0,0,-0.335728
-0.052892208,0.0053238366,0.09291393,0.030477064,-6.332679,-0.110386394,1.0,0.0,0,-0.287711
-0.05201597,0.005938492,0.09263169,0.027144339,-6.3376193,-0.098809086,1.0,0.0,0,-0.239107
-0.05113659,0.006478331,0.09234573,0.023827152,-6.3419757,-0.08712807,1.0,0.0,0,-0.190004
-0.050254058,0.006943569,0.09205635,0.020524055,-6.345743,-0.07535302,1.0,0.0,0,-0.140537
-0.04936857,0.007334385,0.09176399,0.017233461,-6.348918,-0.06349466,1.0,0.0,0,-0.090681
-0.048479937,0.007650957,0.09146901,0.013953676,-6.351496,-0.05156436,1.0,0.0,0,-0.040579
-0.04758825,0.007893429,0.09117189,0.01068289,-6.353475,-0.039573766,1.0,0.0,0,0.009784
-0.046693325,0.008061872,0.09087308,0.007419205,-6.3548517,-0.02753545,1.0,0.0,0,0.060202
-0.04579544,0.008156321,0.09057303,0.0041606566,-6.3556247,-0.015462028,1.0,0.0,0,0.110656
-0.04489441,0.008176885,0.09027223,0.00090522337,-6.355793,-0.0033665295,1.0,0.0,0,0.161060
-0.043990325,0.008123563,0.08997116,-0.0023491501,-6.355356,0.008737857,1.0,0.0,0,0.211379
-0.043083094,0.007996318,0.08967019,-0.0056045237,-6.3543143,0.020837825,1.0,0.0,0,0.261467
-0.04217272,0.0077951527,0.08936992,-0.008862951,-6.3526683,0.032920044,1.0,0.0,0,0.311265
-0.04125929,0.007519958,0.08907086,-0.012126462,-6.3504195,0.04497139,1.0,0.0,0,0.360677
-0.04034271,0.0071706986,0.088773474,-0.015397037,-6.3475704,0.056978934,1.0,0.0,0,0.409628
-0.03942299,0.0067472314,0.08847824,-0.018676588,-6.344124,0.06892997,1.0,0.0,0,0.458031
-0.03850031,0.006249342,0.08818556,-0.02196694,-6.340083,0.08081238,1.0,0.0,0,0.505795
-0.03757448,0.0056769587,0.087895885,-0.025269814,-6.3354526,0.09261447,1.0,0.0,0,0.552869
-0.03664551,0.005029795,0.08760957,-0.028586825,-6.3302364,0.10432521,1.0,0.0,0,0.599136
-0.035713576,0.0043077087,0.08732701,-0.03191946,-6.3244395,0.11593415,1.0,0.0,0,0.644427
-0.034778595,0.0035104488,0.08704856,-0.035269037,-6.318068,0.12743165,1.0,0.0,0,0.688713
-0.03384056,0.0026378368,0.086774476,-0.038636766,-6.3111277,0.1388089,1.0,0.0,0,0.731852
-0.032899477,0.0016895151,0.08650505,-0.042023685,-6.3036246,0.15005809,1.0,0.0,0,0.773633
-0.031955432,0.00066530466,0.08624053,-0.045430694,-6.295566,0.161172,1.0,0.0,0,0.813977
-0.03100853,-0.00043508052,0.0859811,-0.048858516,-6.2869587,0.17214498,1.0,0.0,0,0.852667
-0.030058574,-0.0016119266,0.08572694,-0.05230776,-6.27781,0.18297145,1.0,0.0,0,12.478761
-0.029257774,-0.0019168758,0.0776021,-0.013586535,-6.2754464,0.047164638,1.0,1.0,0,0.249922
-0.028603936,-0.0013983869,0.06929894,0.02304078,-6.279383,-0.07881769,1.0,1.0,0,-0.141548
-0.027941132,-0.000984075,0.06952402,0.01841909,-6.2825847,-0.06402717,1.0,1.0,0,-0.088762
-0.02727518,-0.00064572337,0.0692523,0.015034961,-6.285205,-0.052404374,1.0,1.0,0,-0.045343
-0.026605988,-0.00038336753,0.06897868,0.011658555,-6.287241,-0.040724043,1.0,1.0,0,-10.002042
-0.025933648,-0.00019679307,0.06870359,0.008288115,-6.288691,-0.028999915,1.0,0.0,0,0.041153
-0.025258064,-8.599996e-05,0.068427436,0.00492208,-6.289553,-0.017243087,1.0,0.0,0,0.084143
-0.024579335,-5.091667e-05,0.06815057,0.0015588362,-6.2898264,-0.0054648747,1.0,0.0,0,0.126892
-0.023897458,-9.1507434e-05,0.067873426,-0.0018032546,-6.2895103,0.0063231676,1.0,0.0,0,0.169389
-0.023212338,-0.00020780801,0.067596264,-0.0051658354,-6.2886047,0.018109405,1.0,0.0,0,0.211509
-0.022523975,-0.0003998184,0.06731962,-0.008530551,-6.287111,0.029882137,1.0,0.0,0,0.253256
-0.021832466,-0.00066761015,0.0670439,-0.011899034,-6.2850294,0.041629925,1.0,0.0,0,10.483997
-0.0211936,-0.00067004206,0.06388863,-0.00010831068,-6.285031,-2.561091e-05,1.0,1.0,0,0.158798
-0.02056427,-0.0006681824,0.06293072,8.294054e-05,-6.28503,1.9607865e-05,1.0,1.0,0,0.151906
-0.019944001,-0.00066811085,0.062031645,1.8751327e-06,-6.28503,4.437965e-07,1.0,1.0,0,0.152660
-0.019332886,-0.00066811085,0.0611158,-5.4165207e-07,-6.28503,-1.3425607e-07,1.0,1.0,0,0.151796
-0.018730927,-0.00066811085,0.060199432,-2.0923654e-08,-6.28503,3.052211e-09,1.0,1.0,0,0.150893
-0.018138122,-0.00066811085,0.059282918,6.4184866e-09,-6.28503,1.0974783e-09,1.0,1.0,0,0.149966
-0.017554473,-0.00066811085,0.0583665,6.676367e-09,-6.28503,5.5338306e-10,1.0,1.0,0,0.149047
-0.016979981,-0.00066811085,0.057450093,6.132403e-09,-6.28503,-5.3702126e-10,1.0,1.0,0,0.148130
-0.016414642,-0.00066811085,0.056533683,4.7470037e-09,-6.28503,1.8889277e-09,1.0,1.0,0,0.147212
-0.01585846,-0.00066811085,0.055617273,3.6184433e-09,-6.28503,-3.4027106e-10,1.0,1.0,0,0.146293
-0.015311432,-0.00066811085,0.054700863,2.2716897e-09,-6.28503,-2.5844868e-09,1.0,1.0,0,0.145375
-0.01477356,-0.00066811085,0.053784452,1.3200384e-09,-6.28503,-4.361201e-09,1.0,1.0,0,0.144457
-0.014244842,-0.00066811085,0.052868046,2.4116395e-10,-6.28503,-3.790201e-09,1.0,1.0,0,0.143538
-0.013725281,-0.00066811085,0.051951636,-1.2062185e-09,-6.28503,-3.907804e-09,1.0,1.0,0,0.142609
-0.01321497,-0.00066811085,0.051035225,-2.1711348e-09,-6.28503,-3.7898813e-09,1.0,1.0,0,0.141690
-0.012713814,-0.00066811085,0.050118815,-3.1360534e-09,-6.28503,-3.789943e-09,1.0,1.0,0,0.140770
-0.012221813,-0.00066811085,0.049202405,-3.7002956e-09,-6.28503,-2.5702043e-09,1.0,1.0,0,0.139851
-0.011738968,-0.00066811085,0.048286,-4.556728e-09,-6.28503,2.1227105e-09,1.0,1.0,0,0.138930
-0.011265278,-0.00066811085,0.04736959,-4.706023e-09,-6.28503,2.6191214e-09,1.0,1.0,0,0.138009
-0.0108007435,-0.00066811085,0.046453178,-3.8826657e-09,-6.28503,3.0061589e-09,1.0,1.0,0,0.137088
-0.010345364,-0.00066811085,0.045536768,-3.3772671e-09,-6.28503,-2.858685e-09,1.0,1.0,0,0.136166
-0.009899139,-0.00066811085,0.044620357,-2.8948357e-09,-6.28503,-4.45051e-09,1.0,1.0,0,0.135244
-0.009462071,-0.00066811085,0.04370395,-2.412374e-09,-6.28503,-4.388998e-09,1.0,1.0,0,0.134321
-0.009034157,-0.00066811085,0.04278754,-1.929915e-09,-6.28503,-4.389055e-09,1.0,1.0,0,0.133397
-0.008615399,-0.00066811085,0.04187113,-1.4474553e-09,-6.28503,-4.3892068e-09,1.0,1.0,0,0.132463
-0.008205891,-0.00066811085,0.04095472,-9.649955e-10,-6.28503,-4.3890687e-09,1.0,1.0,0,0.131537
-0.0078055384,-0.00066811085,0.04003831,-4.8253607e-10,-6.28503,-4.3892605e-09,1.0,1.0,0,0.130611
-0.007414341,-0.00066811085,0.039121903,-7.628222e-14,-6.28503,-4.3894666e-09,1.0,1.0,0,0.129683
-0.007032299,-0.00066811085,0.038205493,4.823835e-10,-6.28503,-4.3895616e-09,1.0,1.0,0,0.128753
-0.0066594123,-0.00066811085,0.037289083,9.648425e-10,-6.28503,-4.3896056e-09,1.0,1.0,0,0.127822
-0.006295681,-0.00066811085,0.036372673,1.4473026e-09,-6.28503,-4.389503e-09,1.0,1.0,0,0.126889
-0.005941105,-0.00066811085,0.035456263,1.9297632e-09,-6.28503,-4.389664e-09,1.0,1.0,0,0.125953
-0.005595684,-0.00066811085,0.034539856,2.5261788e-09,-6.28503,-4.8641025e-09,1.0,1.0,0,0.125015
-0.0052594184,-0.00066811085,0.033623446,2.6079994e-09,-6.28503,-3.953841e-09,1.0,1.0,0,0.124074
-0.004932308,-0.00066811085,0.032707036,2.640276e-09,-6.28503,2.7679294e-09,1.0,1.0,0,0.123120
-0.0046144486,-0.00066811085,0.031790625,2.38021e-09,-6.28503,4.3009374e-09,1.0,1.0,0,0.122170
-0.004305744,-0.00066811085,0.030874217,2.285009e-09,-6.28503,-1.3961536e-09,1.0,1.0,0,0.121216
-0.004006195,-0.00066811085,0.029957807,2.3856395e-09,-6.28503,-3.500666e-09,1.0,1.0,0,0.120255
-0.0037158013,-0.00066811085,0.029041398,2.653453e-09,-6.28503,-4.289267e-09,1.0,1.0,0,0.119286
-0.0034345626,-0.00066811085,0.028124988,2.653453e-09,-6.28503,-4.289267e-09,1.0,1.0,0,0.118307
-0.0031624795,-0.00066811085,0.027208578,2.653453e-09,-6.28503,-4.289267e-09,1.0,1.0,0,0.117316
-0.0028995513,-0.00066811085,0.02629217,2.653453e-09,-6.28503,-4.289267e-09,1.0,1.0,0,0.116311
-0.0026457787,-0.00066811085,0.02537576,2.653453e-09,-6.28503,-4.289267e-09,1.0,1.0,0,0.115286
-0.0024011612,-0.00066811085,0.024459349,2.6534546e-09,-6.28503,-4.323832e-09,1.0,1.0,0,0.114238
-0.002165699,-0.00066811085,0.023542937,2.4527145e-09,-6.28503,-4.187838e-09,1.0,1.0,0,0.113158
-0.0019393921,-0.00066811085,0.022626527,1.9706492e-09,-6.28503,-5.2738884e-09,1.0,1.0,0,0.112028
-0.0017223358,-0.00066811085,0.021710116,9.737525e-10,-6.28503,-1.8185082e-08,1.0,1.0,0,0.110853
-0.0015144348,-0.00066811085,0.020793704,-1.2726056e-10,-6.28503,-2.3566614e-08,1.0,1.0,0,0.109607
-0.0013156891,-0.00066811085,0.019877294,-1.3932333e-09,-6.28503,-3.1379135e-09,1.0,1.0,0,0.108264
-0.0011260987,-0.00066811085,0.018960884,-2.553379e-09,-6.28503,4.3376946e-09,1.0,1.0,0,0.106792
-0.0009456634,-0.00066811085,0.018044474,-2.8901284e-09,-6.28503,3.7706616e-09,1.0,1.0,0,0.105151
-0.00077438354,-0.00066811085,0.017128062,-3.0908593e-09,-6.28503,4.417683e-09,1.0,1.0,0,0.103295
-0.0006122589,-0.00066811085,0.016211651,-2.5216322e-09,-6.28503,4.0129096e-09,1.0,1.0,0,0.101188
-0.00045928956,-0.00066811085,0.01529524,-2.043841e-09,-6.28503,-2.077932e-09,1.0,1.0,0,0.098831
-0.00031547545,-0.00066811085,0.014378829,-1.3333665e-09,-6.28503,2.773914e-09,1.0,1.0,0,0.096311
-0.00018081666,-0.00066811085,0.013462419,-1.0789187e-09,-6.28503,-1.9411919e-09,1.0,1.0,0,0.093816
-5.531311e-05,-0.00066811085,0.0125460075,-3.6844658e-10,-6.28503,2.7736962e-09,1.0,1.0,0,0.091592
6.093979e-05,-0.00066811085,0.011629596,-1.1401526e-10,-6.28503,-2.203826e-09,1.0,1.0,0,0.089838
0.00016803741,-0.00066811085,0.010713185,5.9644767e-10,-6.28503,1.3208307e-08,1.0,1.0,0,0.088622
0.00026597976,-0.00066811085,0.009796774,8.509549e-10,-6.28503,3.5733385e-11,1.0,1.0,0,0.087906
0.00035476685,-0.00066811085,0.008880364,1.5613788e-09,-6.28503,1.3926038e-08,1.0,1.0,0,0.087596
0.00043439865,-0.00066811085,0.007963953,1.8158909e-09,-6.28503,9.778702e-10,1.0,1.0,0,0.087591
0.0005048752,-0.00066811085,0.0070475414,2.5262992e-09,-6.28503,1.3984453e-08,1.0,1.0,0,0.087807
0.00056619645,-0.00066811085,0.0061311303,3.00874e-09,-6.28503,6.9659145e-09,1.0,1.0,0,0.088181
0.00061836245,-0.00066811085,0.00521472,3.1038625e-09,-6.28503,8.092818e-09,1.0,1.0,0,0.088667
0.00066137314,-0.00066811085,0.0042983093,2.1664486e-09,-6.28503,-1.5276926e-08,1.0,1.0,0,0.089229
0.0006952286,-0.00066811085,0.003381899,9.336664e-10,-6.28503,-1.711046e-08,1.0,1.0,0,0.089845
0.00071992876,-0.00066811085,0.002465489,-3.1432956e-10,-6.28503,-1.8345545e-09,1.0,1.0,0,0.090503
0.00073537824,-0.00066811085,0.0015490791,-1.7162523e-09,-6.28503,-1.285103e-08,1.0,1.0,0,0.091174
0.0007416725,-0.00066811085,0.00063266885,-1.824665e-09,-6.28503,-1.652762e-08,1.0,1.0,0,0.054173
0.00074071885,-0.00066811085,-9.307785e-05,-6.006338e-08,-6.2850285,2.6602554e-05,1.0,1.0,0,-0.016968
0.0007381439,-0.00066811085,-0.00026848266,-1.7371336e-07,-6.2850246,7.673717e-05,1.0,1.0,0,0.012613
0.0007367134,-0.00066811085,-0.0001453196,-9.428932e-08,-6.2850227,4.153442e-05,1.0,1.0,0,0.013814
0.00073661807,-0.00066811085,-7.2539283e-06,-4.761688e-09,-6.2850227,2.0741013e-06,1.0,1.0,0,-0.003633
0.0007369995,-0.00066811085,4.2824802e-05,2.7626644e-08,-6.285023,-1.2238478e-05,1.0,1.0,0,0.001172
0.0007372856,-0.00066811085,3.041462e-05,2.01912e-08,-6.2850237,-8.694163e-06,1.0,1.0,0,0.002445
0.000737381,-0.00066811085,5.894213e-06,3.802167e-09,-6.2850237,-1.6875298e-06,1.0,1.0,0,-0.000013
0.0007372856,-0.00066811085,-6.0975694e-06,-4.2054134e-09,-6.2850237,1.7444906e-06,1.0,1.0,0,0.000025
0.00073719025,-0.00066811085,-5.922158e-06,-4.269775e-09,-6.2850237,1.6937636e-06,1.0,1.0,0,0.000404
0.00073719025,-0.00066811085,-1.8817207e-06,-1.2837262e-09,-6.2850237,5.3787056e-07,1.0,1.0,0,0.000117
0.00073719025,-0.00066811085,7.0794437e-07,5.588171e-10,-6.2850237,-2.1328678e-07,1.0,1.0,0,-0.000037
0.00073719025,-0.00066811085,1.0807609e-06,6.2890587e-10,-6.2850237,-3.0585878e-07,1.0,1.0,0,0.000060
0.00073719025,-0.00066811085,4.7730066e-07,3.3461708e-10,-6.2850237,-1.5082318e-07,1.0,1.0,0,0.000044
0.00073719025,-0.00066811085,-4.0171052e-08,3.6679694e-11,-6.2850237,1.7481026e-08,1.0,1.0,0,-0.000014
0.00073719025,-0.00066811085,-1.8467978e-07,-7.8134846e-11,-6.2850237,4.8588465e-08,1.0,1.0,0,0.000007
0.00073719025,-0.00066811085,-1.1022301e-07,-7.003664e-11,-6.2850237,4.6287077e-08,1.0,1.0,0,0.000009
0.00073719025,-0.00066811085,-1.5682577e-08,2.6947757e-11,-6.2850237,2.3226892e-08,1.0,1.0,0,-0.000001
0.00073719025,-0.00066811085,2.7331016e-08,2.1131097e-11,-6.2850237,-1.763079e-08,1.0,1.0,0,0.000000
0.00073719025,-0.00066811085,2.5375092e-08,2.0102078e-12,-6.2850237,-1.9437696e-08,1.0,1.0,0,0.000001
0.00073719025,-0.00066811085,1.2405072e-08,-2.7071657e-11,-6.2850237,-1.9593491e-08,1.0,1.0,0,0.000001
0.00073719025,-0.00066811085,3.5609116e-10,-1.33089225e-11,-6.2850237,-2.8277263e-09,1.0,1.0,0,-0.000001
0.00073719025,-0.00066811085,-9.362949e-09,7.9813767e-14,-6.2850237,2.4154355e-08,1.0,1.0,0,100
-0.0010993958,1.4126436,-0.11137269,0.07659362,0.0012807098,0.025227573,0.0,0.0,0,-0.091055
-0.0021989823,1.4142919,-0.111221835,0.07326181,0.0025273133,0.02493511,0.0,0.0,0,-0.048288
-0.0032985688,1.4158435,-0.111225784,0.06895438,0.0037731845,0.024919635,0.0,0.0,0,-0.047990
-0.0043982505,1.4172977,-0.111229494,0.06462956,0.005018895,0.024916736,0.0,0.0,0,-0.049365
-0.005498028,1.4186548,-0.111233175,0.060307745,0.006264417,0.024912862,0.0,0.0,0,-0.051126
-0.00659771,1.4199147,-0.11123687,0.055986002,0.0075097433,0.024908971,0.0,0.0,0,-0.053440
-0.007697487,1.4210773,-0.11124054,0.0516643,0.00875487,0.0249051,0.0,0.0,0,-0.056313
-0.00879736,1.4221425,-0.11124422,0.047342546,0.009999825,0.024901232,0.0,0.0,0,-0.059749
-0.009897232,1.4231107,-0.11124788,0.04302075,0.011244566,0.024897374,0.0,0.0,0,-0.063727
-0.010997104,1.4239818,-0.11125152,0.03869892,0.012489123,0.024893522,0.0,0.0,0,-0.068216
-0.012097073,1.4247556,-0.111255154,0.034377046,0.013733496,0.024889689,0.0,0.0,0,-0.073199
-0.01319704,1.425432,-0.11125879,0.030055132,0.014977672,0.02488587,0.0,0.0,0,-0.078643
-0.0142971035,1.4260112,-0.1112624,0.025733177,0.01622166,0.024882074,0.0,0.0,0,-0.084522
-0.015397167,1.4264933,-0.111266,0.02141118,0.017465457,0.024878286,0.0,0.0,0,-0.090756
-0.01649723,1.4268781,-0.11126961,0.017089142,0.018709064,0.02487452,0.0,0.0,0,-0.097317
-0.017597388,1.4271657,-0.111273184,0.012767049,0.019952489,0.02487076,0.0,0.0,0,-0.104115
-0.018697549,1.4273562,-0.111276746,0.0084449155,0.021195736,0.024867022,0.0,0.0,0,-0.111077
-0.019797802,1.4274492,-0.1112803,0.0041227313,0.022438785,0.024863286,0.0,0.0,0,-0.118191
-0.020898055,1.4274452,-0.11128384,-0.0001994993,0.02368164,0.024859574,0.0,0.0,0,-0.125324
-0.02199831,1.4273441,-0.111287355,-0.0045217555,0.024924317,0.024855869,0.0,0.0,0,-0.132389
-0.023098659,1.4271455,-0.11129087,-0.008844046,0.026166806,0.024852185,0.0,0.0,0,-0.139363
-0.024199009,1.4268498,-0.11129437,-0.013166377,0.027409116,0.024848519,0.0,0.0,0,-0.146121
-0.02529936,1.4264567,-0.111297846,-0.01748873,0.028651237,0.024844859,0.0,0.0,0,-0.152653
-0.026399802,1.4259665,-0.11130132,-0.02181112,0.029893199,0.024841223,0.0,0.0,0,-0.158860
-0.027500248,1.425379,-0.11130476,-0.026133548,0.031134957,0.024837594,0.0,0.0,0,-0.183755
-0.02860031,1.424673,-0.11126332,-0.0314093,0.03237668,0.024834359,0.0,0.0,0,-0.170883
-0.029700374,1.4238697,-0.11126331,-0.035729427,0.033618398,0.024834279,0.0,0.0,0,-0.175721
-0.030800533,1.4229692,-0.11126331,-0.040049557,0.03486011,0.024834152,0.0,0.0,0,-0.180067
-0.031900596,1.4219716,-0.11126331,-0.044369686,0.03610181,0.024834039,0.0,0.0,0,-0.183887
-0.03300066,1.4208769,-0.11126331,-0.048689816,0.037343513,0.024833951,0.0,0.0,0,-0.187148
-0.034100723,1.4196848,-0.11126331,-0.053009942,0.038585212,0.024833836,0.0,0.0,0,-0.189866
-0.035200786,1.4183956,-0.1112633,-0.057330072,0.039826892,0.02483371,0.0,0.0,0,-0.192017
-0.036300946,1.4170091,-0.1112633,-0.061650205,0.04106858,0.024833562,0.0,0.0,0,-0.193638
-0.03740101,1.4155257,-0.1112633,-0.06597033,0.042310257,0.024833538,0.0,0.0,0,-0.194667
-0.038501073,1.4139448,-0.11126329,-0.070290454,0.04355194,0.024833677,0.0,0.0,0,-0.195200
-0.039601136,1.412267,-0.111263275,-0.074610576,0.044793617,0.024833698,0.0,0.0,0,-0.195184
-0.0407012,1.410492,-0.11126326,-0.0789307,0.046035312,0.024833702,0.0,0.0,0,-0.194671
-0.041801356,1.4086196,-0.11126324,-0.083250836,0.047277,0.02483369,0.0,0.0,0,-0.193668
-0.04290142,1.4066503,-0.111263216,-0.08757096,0.04851869,0.02483367,0.0,0.0,0,-0.192183
-0.044001482,1.4045836,-0.111263216,-0.09189109,0.049760368,0.024833655,0.0,0.0,0,-0.190263
-0.045101546,1.4024198,-0.11126319,-0.096211225,0.05100207,0.024833659,0.0,0.0,0,-0.187911
-0.046201706,1.4001589,-0.11126317,-0.100531355,0.052243747,0.024833616,0.0,0.0,0,-0.185144
-0.04730177,1.3978007,-0.11126317,-0.10485149,0.053485427,0.024833601,0.0,0.0,0,-0.182001
-0.048401833,1.3953453,-0.11126314,-0.10917162,0.054727107,0.024833597,0.0,0.0,0,-0.178485
-0.049501993,1.3927927,-0.11126313,-0.11349176,0.055968795,0.024833588,0.0,0.0,0,-0.174648
-0.050602056,1.3901432,-0.11126311,-0.11781189,0.057210475,0.024833594,0.0,0.0,0,-0.170449
-0.05170212,1.3873961,-0.1112631,-0.12213202,0.058452167,0.024833653,0.0,0.0,0,-0.165986
-0.052802276,1.3845521,-0.11126308,-0.12645215,0.059693847,0.024833607,0.0,0.0,0,-0.161208
-0.05390234,1.3816109,-0.11126308,-0.13077228,0.060935523,0.024833573,0.0,0.0,0,-0.156177
-0.055002403,1.3785725,-0.11126308,-0.13509242,0.062177207,0.024833579,0.0,0.0,0,-0.150877
-0.056102563,1.3754368,-0.11126306,-0.13941257,0.06341891,0.024833774,0.0,0.0,0,-0.145367
-0.057202626,1.3722041,-0.11126306,-0.14373268,0.06466061,0.02483379,0.0,0.0,0,-0.139590
-0.05830269,1.3688741,-0.11126304,-0.14805278,0.06590229,0.024833716,0.0,0.0,0,-0.133655
-0.059402846,1.3654469,-0.111263014,-0.15237293,0.067143984,0.02483372,0.0,0.0,0,-0.127489
-0.06050291,1.3619226,-0.111263,-0.15669304,0.06838567,0.024833718,0.0,0.0,0,-0.121159
-0.06160307,1.3583012,-0.11126299,-0.16101316,0.06962735,0.024833705,0.0,0.0,0,-0.114641
-0.06270313,1.3545823,-0.11126298,-0.16533327,0.070869036,0.024833702,0.0,0.0,0,-0.107996
-0.063803196,1.3507667,-0.11126296,-0.16965342,0.07211073,0.024833681,0.0,0.0,0,-0.101152
-0.064903356,1.3468535,-0.111262955,-0.17397355,0.07335241,0.024833689,0.0,0.0,0,-0.094211
-0.06600342,1.3428433,-0.11126294,-0.17829366,0.0745941,0.024833698,0.0,0.0,0,-0.087113
-0.06710358,1.3387358,-0.11126292,-0.1826138,0.075835794,0.024833655,0.0,0.0,0,-0.079901
-0.06820364,1.3345313,-0.1112629,-0.18693393,0.077077486,0.024833648,0.0,0.0,0,-0.072561
-0.069303796,1.3302295,-0.1112629,-0.19125406,0.07831916,0.024833655,0.0,0.0,0,-0.065143
-0.07040386,1.3258307,-0.1112629,-0.19557421,0.07956085,0.024833659,0.0,0.0,0,-0.057575
-0.07150402,1.3213344,-0.111262895,-0.19989434,0.08080254,0.024833674,0.0,0.0,0,-0.049956
-0.07260408,1.3167412,-0.111262895,-0.20421444,0.08204423,0.024833644,0.0,0.0,0,-0.042221
-0.07370424,1.3120507,-0.11126288,-0.20853457,0.08328591,0.02483368,0.0,0.0,0,-0.034413
-0.074804306,1.307263,-0.11126287,-0.21285468,0.084527604,0.024833683,0.0,0.0,0,-0.026516
-0.075904466,1.3023782,-0.11126284,-0.21717483,0.08576929,0.024833655,0.0,0.0,0,-0.018571
-0.07700463,1.2973962,-0.111262836,-0.22149496,0.08701098,0.024833627,0.0,0.0,0,-0.010515
-0.07810469,1.2923169,-0.11126282,-0.2258151,0.08825267,0.024833629,0.0,0.0,0,-0.002435
-0.07920484,1.2871406,-0.11126282,-0.23013523,0.08949436,0.024833648,0.0,0.0,0,0.005738
-0.080304906,1.281867,-0.11126281,-0.23445535,0.09073604,0.02483371,0.0,0.0,0,0.013948
-0.081405066,1.2764963,-0.11126278,-0.23877548,0.09197773,0.024833774,0.0,0.0,0,0.022226
-0.082505226,1.2710283,-0.11126276,-0.24309562,0.09321944,0.024833757,0.0,0.0,0,0.030546
-0.08360529,1.2654632,-0.11126274,-0.24741575,0.094461136,0.024833769,0.0,0.0,0,0.038911
-0.08470545,1.2598009,-0.111262724,-0.25173587,0.09570283,0.024833754,0.0,0.0,0,0.047333
-0.08580561,1.2540414,-0.11126272,-0.25605598,0.096944526,0.024833748,0.0,0.0,0,0.055785
-0.08690576,1.2481848,-0.111262694,-0.26037613,0.09818622,0.024833756,0.0,0.0,0,0.064279
-0.088005826,1.242231,-0.11126268,-0.26469624,0.09942789,0.024833705,0.0,0.0,0,0.072805
-0.089105986,1.2361801,-0.11126266,-0.26901636,0.10066955,0.024833249,0.0,0.0,0,0.081377
-0.090206146,1.2300318,-0.111262634,-0.2733365,0.101911224,0.024833256,0.0,0.0,0,0.089985
-0.09130631,1.2237864,-0.111262605,-0.27765664,0.10315289,0.024833247,0.0,0.0,0,0.098595
-0.09240637,1.217444,-0.11126258,-0.2819768,0.10439456,0.024833245,0.0,0.0,0,0.107266
-0.09350653,1.2110043,-0.11126256,-0.28629687,0.105636224,0.024833243,0.0,0.0,0,0.115943
-0.09460668,1.2044673,-0.11126254,-0.29061696,0.106877886,0.02483311,0.0,0.0,0,0.124653
-0.09570684,1.1978332,-0.111262515,-0.2949371,0.10811954,0.024833096,0.0,0.0,0,0.133376
-0.096807,1.1911019,-0.111262485,-0.29925725,0.1093612,0.0248331,0.0,0.0,0,0.142124
-0.09790716,1.1842735,-0.11126246,-0.30357736,0.11060286,0.02483312,0.0,0.0,0,0.150900
-0.09900732,1.1773479,-0.111262426,-0.3078975,0.11184452,0.024833139,0.0,0.0,0,0.159680
-0.100107476,1.170325,-0.1112624,-0.31221765,0.11308618,0.024833124,0.0,0.0,0,0.168484
-0.10120764,1.1632051,-0.11126238,-0.31653774,0.11432783,0.024833139,0.0,0.0,0,0.177311
-0.1023078,1.1559879,-0.11126236,-0.32085782,0.11556949,0.024833107,0.0,0.0,0,0.186119
-0.10340796,1.1486737,-0.11126234,-0.32517794,0.11681114,0.024833098,0.0,0.0,0,0.194988
-0.10450812,1.141262,-0.1112623,-0.329498,0.1180528,0.02483311,0.0,0.0,0,0.203815
-0.10560827,1.1337534,-0.111262284,-0.33381814,0.119294465,0.024833104,0.0,0.0,0,0.212709
-0.10670843,1.1261474,-0.11126226,-0.33813822,0.12053611,0.024833096,0.0,0.0,0,0.221558
-0.10780859,1.1184444,-0.11126225,-0.3424583,0.12177777,0.02483311,0.0,0.0,0,0.230424
-0.10890875,1.1106442,-0.111262225,-0.34677845,0.12301944,0.024833087,0.0,0.0,0,0.239324
-0.11000891,1.1027468,-0.1112622,-0.35109854,0.124261096,0.024833096,0.0,0.0,0,0.248213
-0.11110906,1.0947521,-0.11126218,-0.35541868,0.12550277,0.024833085,0.0,0.0,0,0.257092
-0.11220922,1.0866604,-0.11126216,-0.35973877,0.12674442,0.024833072,0.0,0.0,0,0.265987
-0.11330938,1.0784714,-0.11126213,-0.3640589,0.12798609,0.024833076,0.0,0.0,0,0.274896
-0.11440964,1.0701852,-0.111262105,-0.368379,0.12922774,0.024833094,0.0,0.0,0,0.283765
-0.11550979,1.061802,-0.11126208,-0.37269914,0.1304694,0.024833098,0.0,0.0,0,0.292671
-0.11660995,1.0533215,-0.111262046,-0.37701923,0.13171107,0.024833092,0.0,0.0,0,0.301554
-0.11771011,1.0447439,-0.11126201,-0.38133934,0.13295272,0.024833057,0.0,0.0,0,0.310428
-0.11881037,1.0360692,-0.111261986,-0.3856595,0.13419439,0.024833051,0.0,0.0,2,4.368518
-0.119873144,1.0283369,-0.108128466,-0.34381804,0.1360363,0.036838233,0.0,0.0,2,5.045638
-0.12112303,1.0219339,-0.12658511,-0.28472558,0.13761663,0.031606734,0.0,0.0,2,5.037462
-0.12233563,1.016769,-0.12357286,-0.22976743,0.13993376,0.04634235,0.0,0.0,0,-0.105220
-0.12354813,1.011507,-0.12357275,-0.23408788,0.14225088,0.04634235,0.0,0.0,0,-0.097453
-0.12476063,1.006148,-0.12357266,-0.23840833,0.14456801,0.04634235,0.0,0.0,0,-0.089631
-0.12597322,1.0006917,-0.12357257,-0.24272877,0.14688513,0.046342332,0.0,0.0,0,-0.081755
-0.12718573,0.99513835,-0.12357247,-0.24704923,0.14920223,0.04634229,0.0,0.0,2,5.117778
-0.12843437,0.9910287,-0.12772545,-0.18293409,0.1520605,0.057165336,0.0,0.0,2,4.504418
-0.12965994,0.9883465,-0.12623787,-0.11959387,0.15573613,0.07351299,0.0,0.0,2,0.912871
-0.13109437,0.98694795,-0.14682433,-0.06252008,0.15911789,0.067635,0.0,0.0,0,-0.383086
-0.13252887,0.9854522,-0.1468241,-0.06684103,0.16249964,0.06763496,0.0,0.0,0,-0.383327
-0.1339633,0.9838595,-0.14682388,-0.07116197,0.1658814,0.06763494,0.0,0.0,2,1.011422
-0.1353713,0.98345864,-0.14494452,-0.018282352,0.17004062,0.083184615,0.0,0.0,2,-1.745515
-0.13684416,0.9841899,-0.151785,0.0319807,0.17454499,0.090087496,0.0,0.0,2,-2.070455
-0.13835935,0.98550886,-0.15618199,0.05806841,0.17922358,0.093571804,0.0,0.0,0,-0.464359
-0.13987455,0.98673105,-0.1561815,0.0537466,0.18390216,0.09357168,0.0,0.0,0,-0.465044
-0.14138985,0.9878563,-0.15618101,0.0494248,0.18858074,0.09357153,0.0,0.0,0,-0.465985
-0.14290515,0.98888457,-0.15618049,0.045103,0.1932593,0.093571365,0.0,0.0,0,-0.467189
-0.14442043,0.98981595,-0.15617996,0.040781192,0.19793788,0.09357119,0.0,0.0,0,-0.468621
-0.14593582,0.99065053,-0.15617941,0.036459394,0.20261642,0.09357105,0.0,0.0,0,-0.470261
-0.14745131,0.9913881,-0.15617886,0.0321376,0.20729499,0.09357088,0.0,0.0,0,-0.472094
-0.1489667,0.99202865,-0.1561783,0.027815802,0.21197352,0.09357074,0.0,0.0,0,-0.474122
-0.15048209,0.9925724,-0.15617773,0.02349401,0.21665204,0.09357058,0.0,0.0,0,-0.476311
-0.15199757,0.9930193,-0.15617713,0.01917222,0.22133055,0.09357042,0.0,0.0,0,-0.478619
-0.15351304,0.9933692,-0.15617654,0.014850429,0.22600906,0.09357025,0.0,0.0,0,-0.481055
-0.15502863,0.99362224,-0.15617594,0.010528644,0.23068756,0.0935701,0.0,0.0,0,-0.483562
-0.1565443,0.99377835,-0.15617532,0.006206858,0.23536606,0.09356993,0.0,0.0,0,-0.486122
-0.15805998,0.9938374,-0.15617467,0.0018850745,0.24004453,0.09356976,0.0,0.0,0,-0.488736
-0.15957566,0.9937996,-0.15617403,-0.0024367073,0.24472302,0.093569614,0.0,0.0,0,-0.491338
-0.16109142,0.9936649,-0.15617338,-0.0067584864,0.2494015,0.09356947,0.0,0.0,0,-0.493934
-0.16260728,0.9934333,-0.15617271,-0.011080263,0.25407997,0.09356933,0.0,0.0,0,-0.496464
-0.16412315,0.9931047,-0.15617202,-0.015402038,0.25875843,0.09356916,0.0,0.0,0,-0.498949
-0.16563912,0.9926794,-0.15617132,-0.019723812,0.26343688,0.093569025,0.0,0.0,0,-0.501292
-0.16715518,0.992157,-0.1561706,-0.024045583,0.26811534,0.09356888,0.0,0.0,0,-0.503536
-0.16867122,0.99153775,-0.15616989,-0.028367352,0.27279377,0.093568765,0.0,0.0,0,-0.505619
-0.17018728,0.9908215,-0.15616915,-0.032689117,0.2774722,0.09356864,0.0,0.0,0,-0.507551
-0.17170343,0.99000835,-0.1561684,-0.037010886,0.28215063,0.09356849,0.0,0.0,0,-0.509294
-0.17321959,0.9890984,-0.15616764,-0.041332647,0.28682905,0.09356833,0.0,0.0,0,-0.510801
-0.17473574,0.98809135,-0.15616687,-0.04565441,0.29150745,0.09356815,0.0,0.0,0,-0.512123
-0.17625208,0.9869874,-0.15616609,-0.049976166,0.29618585,0.09356801,0.0,0.0,0,-0.513207
-0.17776842,0.9857866,-0.15616529,-0.05429792,0.30086425,0.09356786,0.0,0.0,0,-0.514047
-0.17928477,0.984489,-0.15616448,-0.058619674,0.30554265,0.09356768,0.0,0.0,3,0.344460
-0.1807417,0.98311317,-0.14870226,-0.061787743,0.3086651,0.06244853,0.0,0.0,3,0.817900
-0.18211937,0.98167866,-0.13870712,-0.06395532,0.30963334,0.019365015,0.0,0.0,3,0.897154
-0.18342638,0.9801845,-0.12976125,-0.066207334,0.30865708,-0.019525586,0.0,0.0,3,0.866062
-0.18467808,0.9786305,-0.12271266,-0.06854684,0.30610833,-0.050975032,0.0,0.0,3,1.493288
-0.185841,0.9770289,-0.111442015,-0.07016827,0.30109993,-0.100167915,0.0,0.0,3,1.572408
-0.18692216,0.9753692,-0.10111445,-0.07233026,0.29387444,-0.1445094,0.0,0.0,3,1.741163
-0.18792085,0.9736466,-0.09071581,-0.07474191,0.28444692,-0.18855011,0.0,0.0,0,0.822730
-0.18891974,0.97182816,-0.090712614,-0.07906903,0.27501947,-0.18854897,0.0,0.0,0,0.823122
-0.1899189,0.9699134,-0.09070952,-0.08339619,0.26559207,-0.1885478,0.0,0.0,0,0.824087
-0.19091825,0.96790266,-0.09070654,-0.08772336,0.25616473,-0.18854666,0.0,0.0,0,0.825613
-0.1919178,0.96579593,-0.09070366,-0.09205055,0.24673745,-0.18854551,0.0,0.0,0,0.827672
-0.19291754,0.9635931,-0.09070088,-0.09637776,0.23731025,-0.18854438,0.0,0.0,0,0.830223
-0.19391736,0.9612941,-0.0906982,-0.100705,0.22788307,-0.18854323,0.0,0.0,0,0.833199
-0.19491749,0.9588992,-0.09069561,-0.105032235,0.21845597,-0.18854207,0.0,0.0,0,0.836594
-0.1959178,0.9564082,-0.09069314,-0.109359495,0.20902893,-0.1885409,0.0,0.0,0,0.840374
-0.1969182,0.9538213,-0.09069077,-0.11368677,0.19960195,-0.18853976,0.0,0.0,0,0.844523
-0.1979188,0.9511382,-0.09068849,-0.11801406,0.190175,-0.1885386,0.0,0.0,0,0.848995
-0.19891949,0.948359,-0.09068632,-0.122341365,0.18074812,-0.18853748,0.0,0.0,0,0.853739
-0.19992037,0.945484,-0.09068426,-0.12666868,0.1713213,-0.18853635,0.0,0.0,0,0.858789
-0.2009213,0.9425128,-0.090682305,-0.13099602,0.16189454,-0.18853521,0.0,0.0,0,0.864090
-0.20192246,0.9394455,-0.09068045,-0.13532335,0.15246786,-0.18853407,0.0,0.0,0,0.869601
-0.20292369,0.93628234,-0.09067871,-0.13965072,0.14304122,-0.1885329,0.0,0.0,0,0.875356
-0.20392504,0.9330231,-0.09067706,-0.14397806,0.13361463,-0.18853174,0.0,0.0,0,0.881290
-0.20492649,0.92966783,-0.09067552,-0.14830543,0.12418809,-0.1885306,0.0,0.0,0,0.887419
-0.20592809,0.9262164,-0.09067408,-0.1526328,0.11476162,-0.1885294,0.0,0.0,0,0.893703
-0.20692968,0.92266905,-0.09067275,-0.1569602,0.105335206,-0.18852825,0.0,0.0,0,0.900122
-0.20793143,0.91902584,-0.09067152,-0.1612876,0.09590885,-0.18852709,0.0,0.0,0,0.906712
-0.2089332,0.9152865,-0.09067039,-0.16561502,0.08648255,-0.18852594,0.0,0.0,0,0.913427
-0.2099351,0.911451,-0.09066937,-0.16994242,0.07705631,-0.18852477,0.0,0.0,0,0.920232
-0.21093702,0.90751964,-0.090668455,-0.17426986,0.06763013,-0.18852364,0.0,0.0,0,0.927173
-0.211939,0.90349215,-0.09066764,-0.17859727,0.058203995,-0.18852247,0.0,0.0,0,0.934211
-0.21294102,0.8993686,-0.090666935,-0.1829247,0.048777923,-0.18852131,0.0,0.0,0,0.941307
-0.2139431,0.8951492,-0.09066634,-0.18725213,0.03935192,-0.18852016,0.0,0.0,0,0.948516
-0.21494517,0.89083356,-0.09066585,-0.19157958,0.029925965,-0.188519,0.0,0.0,0,0.955781
-0.2159473,0.88642204,-0.09066546,-0.19590703,0.020500079,-0.18851784,0.0,0.0,0,0.963116
-0.21694942,0.8819145,-0.09066518,-0.20023446,0.011074235,-0.18851665,0.0,0.0,0,0.970506
-0.21795158,0.87731093,-0.090665,-0.2045619,0.001648459,-0.18851551,0.0,0.0,0,-0.577496
-0.2189537,0.87261146,-0.09066492,-0.20888932,-0.007777251,-0.18851434,0.0,0.0,0,-0.899674
-0.21995588,0.8678158,-0.09066495,-0.21321677,-0.017202916,-0.18851319,0.0,0.0,0,-0.892126
-0.220958,0.86292416,-0.09066509,-0.21754421,-0.026628515,-0.188512,0.0,0.0,0,-0.884553
-0.22196007,0.8579367,-0.09066534,-0.22187163,-0.03605405,-0.18851082,0.0,0.0,0,-0.876928
-0.22296214,0.85285306,-0.09066568,-0.22619909,-0.04547953,-0.18850969,0.0,0.0,0,-0.869270
-0.22396417,0.84767336,-0.09066614,-0.23052652,-0.054904953,-0.18850854,0.0,0.0,0,-0.861605
-0.22496614,0.84239763,-0.0906667,-0.23485397,-0.064330325,-0.18850738,0.0,0.0,0,-0.853933
-0.22596808,0.83702606,-0.09066735,-0.23918138,-0.07375564,-0.18850623,0.0,0.0,0,-0.846207
-0.22696991,0.83155817,-0.09066811,-0.24350882,-0.08318089,-0.18850505,0.0,0.0,0,-0.838513
-0.22797175,0.8259945,-0.090668984,-0.24783625,-0.092606075,-0.18850389,0.0,0.0,0,-0.830783
-0.22897348,0.8203347,-0.09066996,-0.25216365,-0.10203121,-0.18850274,0.0,0.0,0,-0.823069
-0.22997513,0.8145789,-0.09067104,-0.25649107,-0.1114563,-0.18850158,0.0,0.0,0,-0.815351
-0.23097667,0.8087271,-0.090672225,-0.26081848,-0.12088133,-0.18850043,0.0,0.0,0,-0.807624
-0.23197813,0.80277914,-0.09067352,-0.26514587,-0.13030629,-0.18849924,0.0,0.0,0,-0.799932
-0.23297949,0.7967354,-0.09067491,-0.26947322,-0.13973118,-0.18849811,0.0,0.0,0,-0.792230
-0.23398075,0.7905955,-0.09067641,-0.27380058,-0.14915603,-0.1884969,0.0,0.0,0,-0.784555
-0.23498192,0.78435963,-0.090678014,-0.27812797,-0.15858082,-0.18849574,0.0,0.0,0,-0.776881
-0.2359829,0.7780276,-0.09067972,-0.2824553,-0.16800556,-0.18849461,0.0,0.0,0,-0.769250
-0.23698378,0.7715996,-0.09068152,-0.28678262,-0.17743023,-0.18849348,0.0,0.0,0,-0.761644
-0.23798451,0.7650756,-0.09068344,-0.29110995,-0.18685484,-0.18849233,0.0,0.0,0,-0.754051
-0.2389851,0.75845546,-0.09068545,-0.29543725,-0.19627939,-0.1884912,0.0,0.0,0,-0.746507
-0.23998556,0.7517394,-0.09068757,-0.2997645,-0.20570388,-0.18849002,0.0,0.0,0,-0.738993
-0.24098583,0.7449271,-0.09068979,-0.3040918,-0.21512833,-0.18848887,0.0,0.0,0,-0.731543
-0.24198595,0.73801905,-0.09069212,-0.30841908,-0.22455272,-0.18848774,0.0,0.0,0,-0.724099
-0.24298587,0.73101467,-0.090694554,-0.31274635,-0.23397705,-0.18848656,0.0,0.0,0,-0.716744
-0.24398561,0.7239145,-0.09069709,-0.31707355,-0.24340132,-0.18848543,0.0,0.0,0,-0.709413
-0.24498515,0.71671814,-0.09069972,-0.32140073,-0.25282553,-0.18848427,0.0,0.0,0,-0.702151
-0.24598451,0.7094257,-0.09070246,-0.32572794,-0.26224968,-0.18848312,0.0,0.0,0,-0.694958
-0.24698362,0.7020373,-0.09070529,-0.33005512,-0.27167377,-0.18848197,0.0,0.0,0,-0.687824
-0.24798259,0.69455266,-0.09070824,-0.33438224,-0.2810978,-0.18848082,0.0,0.0,0,-0.680778
-0.24898133,0.6869721,-0.09071128,-0.33870938,-0.29052177,-0.18847965,0.0,0.0,0,-0.673810
-0.24997978,0.67929554,-0.09071441,-0.34303653,-0.29994568,-0.1884785,0.0,0.0,0,-0.666898
-0.25097805,0.67152274,-0.09071766,-0.3473636,-0.30936953,-0.18847731,0.0,0.0,0,-0.660111
-0.25197607,0.6636539,-0.090721,-0.35169068,-0.31879336,-0.18847619,0.0,0.0,0,-0.653402
-0.25297385,0.65568894,-0.090724446,-0.3560177,-0.32821712,-0.18847504,0.0,0.0,0,-0.646814
-0.25397134,0.647628,-0.09072799,-0.36034477,-0.33764082,-0.18847385,0.0,0.0,0,-0.640333
-0.25496858,0.6394711,-0.090731636,-0.36467174,-0.34706447,-0.18847272,0.0,0.0,0,-0.633955
-0.25596556,0.6312179,-0.09073538,-0.3689988,-0.35648805,-0.18847154,0.0,0.0,0,-0.627718
-0.25696224,0.6228687,-0.09073922,-0.37332577,-0.36591157,-0.1884704,0.0,0.0,0,-0.621612
-0.25795865,0.61442345,-0.09074316,-0.37765273,-0.37533504,-0.18846926,0.0,0.0,0,-0.615648
-0.25895476,0.605882,-0.0907472,-0.38197967,-0.38475844,-0.18846807,0.0,0.0,0,-0.609838
-0.25995064,0.59724444,-0.09075134,-0.38630658,-0.3941818,-0.1884669,0.0,0.0,0,-0.604191
-0.26094612,0.5885107,-0.09075558,-0.39063343,-0.40360507,-0.18846576,0.0,0.0,0,-0.598731
-0.26194137,0.57968086,-0.09075991,-0.39496028,-0.4130283,-0.1884646,0.0,0.0,0,-0.593454
-0.2629363,0.57075495,-0.09076434,-0.3992871,-0.42245147,-0.18846342,0.0,0.0,0,-0.588385
-0.2639309,0.5617329,-0.090768866,-0.4036139,-0.43187457,-0.18846227,0.0,0.0,0,-0.583520
-0.26492515,0.5526147,-0.090773486,-0.40794066,-0.44129762,-0.18846114,0.0,0.0,0,-0.578900
-0.26591906,0.5434004,-0.0907782,-0.41226736,-0.4507206,-0.18845996,0.0,0.0,0,-0.574515
-0.26691264,0.5340899,-0.090783015,-0.41659406,-0.46014354,-0.1884588,0.0,0.0,0,-0.570411
-0.2679059,0.52468336,-0.09078792,-0.42092076,-0.4695664,-0.18845764,0.0,0.0,0,-0.566573
-0.2688988,0.51518065,-0.09079292,-0.42524737,-0.47898924,-0.18845648,0.0,0.0,0,-0.563049
-0.26989126,0.50558174,-0.09079801,-0.429574,-0.48841202,-0.18845533,0.0,0.0,0,-0.559848
-0.27088338,0.49588674,-0.0908032,-0.43390062,-0.49783474,-0.1884542,0.0,0.0,0,-0.556991
-0.27187514,0.48609555,-0.09080848,-0.43822715,-0.5072574,-0.18845305,0.0,0.0,0,-0.554514
-0.2728665,0.4762082,-0.09081386,-0.44255364,-0.51668,-0.18845189,0.0,0.0,0,-0.552437
-0.27385744,0.46622467,-0.09081934,-0.44688013,-0.52610254,-0.18845074,0.0,0.0,0,-0.550788
-0.27484798,0.45614493,-0.09082489,-0.45120654,-0.535525,-0.18844956,0.0,0.0,0,-0.549623
-0.2758382,0.44596905,-0.09083054,-0.45553294,-0.54494745,-0.1884484,0.0,0.0,0,-0.548944
-0.27682796,0.43569696,-0.09083627,-0.4598593,-0.5543698,-0.18844725,0.0,0.0,2,2.836325
-0.27756596,0.42608994,-0.06549733,-0.43043736,-0.56403965,-0.19339703,0.0,0.0,2,2.694862
-0.27810892,0.4171785,-0.04557892,-0.39978176,-0.57425374,-0.20428157,0.0,0.0,2,4.805440
-0.2780375,0.4094433,0.0155863715,-0.34746394,-0.5842153,-0.19923101,0.0,0.0,2,1.483871
-0.27768642,0.40225527,0.04351652,-0.32320955,-0.59419346,-0.19956325,0.0,0.0,0,-0.808700
-0.27733475,0.39497116,0.043509565,-0.32753646,-0.6041716,-0.19956188,0.0,0.0,0,-0.804087
-0.27698264,0.38759094,0.043502513,-0.33186334,-0.6141496,-0.1995605,0.0,0.0,0,-0.799734
-0.27662998,0.3801146,0.043495357,-0.3361902,-0.6241275,-0.19955912,0.0,0.0,0,-0.795670
-0.27627683,0.37254217,0.0434881,-0.34051698,-0.6341054,-0.19955777,0.0,0.0,0,-0.791894
-0.27592316,0.36487356,0.04348074,-0.34484372,-0.6440832,-0.19955644,0.0,0.0,0,-0.788449
-0.27556896,0.35710874,0.04347328,-0.34917042,-0.65406096,-0.19955507,0.0,0.0,2,1.208735
-0.27470508,0.35000026,0.09401515,-0.31986895,-0.66358125,-0.19040562,0.0,0.0,2,0.200461
-0.273321,0.34354064,0.1455965,-0.29087454,-0.6726233,-0.18084073,0.0,0.0,2,-1.388793
-0.27142197,0.33754766,0.19643518,-0.26984504,-0.6808853,-0.16523978,0.0,0.0,0,-0.583519
-0.26952258,0.33145818,0.1964298,-0.2741695,-0.68914723,-0.165239,0.0,0.0,0,-0.579234
-0.26762277,0.3252722,0.19642437,-0.27849394,-0.69740915,-0.16523823,0.0,0.0,0,-0.575052
-0.26572257,0.31898975,0.19641887,-0.28281832,-0.705671,-0.16523744,0.0,0.0,2,-0.497311
-0.2634686,0.31337336,0.23196092,-0.25337586,-0.71421397,-0.17085902,0.0,0.0,2,-1.643293
-0.26063663,0.3089379,0.29014033,-0.20117861,-0.7233185,-0.18209007,0.0,0.0,2,-4.504216
-0.25714475,0.30536243,0.35582674,-0.16284698,-0.7320885,-0.17540032,0.0,0.0,0,-0.552549
-0.25365242,0.30169052,0.35582027,-0.16717179,-0.7408585,-0.17539933,0.0,0.0,0,-0.549042
-0.2501596,0.29792213,0.3558138,-0.17149657,-0.7496284,-0.1753984,0.0,0.0,0,-0.545477
-0.24666634,0.2940573,0.35580724,-0.17582129,-0.7583983,-0.17539747,0.0,0.0,0,-0.541841
-0.2431726,0.290096,0.3558006,-0.18014598,-0.7671681,-0.17539653,0.0,0.0,0,-0.538160
-0.23967843,0.28603828,0.35579392,-0.18447064,-0.7759379,-0.17539561,0.0,0.0,0,-0.534402
-0.23618373,0.28188407,0.3557872,-0.18879528,-0.78470767,-0.17539468,0.0,0.0,2,-1.916752
-0.2324441,0.27828205,0.38066545,-0.1645859,-0.7940906,-0.18765883,0.0,0.0,0,-0.587528
-0.22870383,0.2745837,0.38065758,-0.16891113,-0.80347353,-0.18765771,0.0,0.0,0,-0.583904
-0.22496304,0.27078903,0.38064963,-0.17323628,-0.8128564,-0.18765655,0.0,0.0,0,-0.580199
-0.22122173,0.26689792,0.38064164,-0.17756137,-0.82223916,-0.18765543,0.0,0.0,0,-0.576422
-0.2174798,0.26291037,0.38063356,-0.18188642,-0.8316219,-0.1876543,0.0,0.0,1,0.304227
-0.21378012,0.25890657,0.3749557,-0.18161534,-0.8389568,-0.14669742,0.0,0.0,1,0.643446
-0.21013351,0.25488842,0.36808607,-0.18113858,-0.84402484,-0.10136159,0.0,0.0,1,0.851974
-0.20653363,0.25086844,0.36180016,-0.1800275,-0.8467234,-0.053970058,0.0,0.0,1,0.912613
-0.20297436,0.2468269,0.35643572,-0.18001,-0.8474831,-0.015194507,0.0,0.0,1,1.077019
-0.19945621,0.24275716,0.35109586,-0.18033145,-0.84640324,0.021596706,0.0,0.0,0,0.454072
-0.19593792,0.23859023,0.3510957,-0.18465148,-0.8453234,0.021596674,0.0,0.0,1,1.421706
-0.19246492,0.23441686,0.34505314,-0.18379384,-0.8419775,0.06691754,0.0,0.0,1,1.550472
-0.1890339,0.23022552,0.33946615,-0.18358542,-0.8366107,0.10733662,0.0,0.0,1,2.008614
-0.18565789,0.22603685,0.33218706,-0.18218917,-0.8286645,0.15892346,0.0,0.0,0,1.130784
-0.1822814,0.22175153,0.3321812,-0.1865127,-0.82071835,0.15892275,0.0,0.0,0,1.134505
-0.17890462,0.21736966,0.33217537,-0.19083628,-0.8127723,0.15892203,0.0,0.0,1,1.891393
-0.17556219,0.21296369,0.32744867,-0.19107448,-0.8030554,0.1943371,0.0,0.0,1,2.454741
-0.17227793,0.20855434,0.31977916,-0.1900606,-0.79082245,0.24465966,0.0,0.0,1,2.556142
-0.16904907,0.20411891,0.31259185,-0.19028783,-0.77647865,0.286876,0.0,0.0,0,1.763733
-0.16581888,0.1995882,0.3125736,-0.19462004,-0.762135,0.2868719,0.0,0.0,0,1.767311
-0.16258755,0.1949622,0.3125556,-0.19895242,-0.74779165,0.28686786,0.0,0.0,0,1.770926
-0.15935488,0.19024108,0.31253785,-0.20328496,-0.73344845,0.28686377,0.0,0.0,0,1.774533
-0.15612106,0.18542483,0.3125204,-0.2076177,-0.71910554,0.2868597,0.0,0.0,0,1.778182
-0.152886,0.1805134,0.31250322,-0.2119506,-0.70476276,0.28685558,0.0,0.0,0,1.781806
-0.14964981,0.17550689,0.31248632,-0.21628365,-0.69042015,0.28685153,0.0,0.0,0,1.785421
-0.14641237,0.17040525,0.3124697,-0.22061686,-0.6760778,0.28684747,0.0,0.0,0,1.788993
-0.14317389,0.16520856,0.31245336,-0.22495024,-0.6617356,0.2868434,0.0,0.0,0,1.792511
-0.13993426,0.1599169,0.31243736,-0.22928376,-0.64739364,0.28683937,0.0,0.0,0,1.795967
-0.13669357,0.15453015,0.31242162,-0.23361745,-0.6330519,0.2868353,0.0,0.0,0,1.799338
-0.13345174,0.14904843,0.31240615,-0.23795128,-0.6187103,0.28683126,0.0,0.0,0,1.802560
-0.13020878,0.14347187,0.312391,-0.24228525,-0.604369,0.28682718,0.0,0.0,0,1.805647
-0.12696496,0.13780025,0.31237617,-0.24661937,-0.5900278,0.28682312,0.0,0.0,0,1.808527
-0.12372007,0.13203378,0.31236163,-0.2509536,-0.5756869,0.28681907,0.0,0.0,0,1.811176
-0.120474145,0.12617241,0.31234738,-0.255288,-0.5613461,0.286815,0.0,0.0,0,1.813517
-0.11722727,0.12021612,0.31233346,-0.25962254,-0.5470056,0.2868109,0.0,0.0,0,1.815495
-0.11397944,0.11416491,0.31231984,-0.2639572,-0.53266525,0.28680682,0.0,0.0,0,1.817010
-0.11073065,0.108018935,0.31230658,-0.268292,-0.5183251,0.28680277,0.0,0.0,0,1.817961
-0.1074811,0.10177804,0.3122936,-0.2726269,-0.50398517,0.28679872,0.0,0.0,0,1.818217
-0.1042306,0.09544238,0.31228095,-0.27696195,-0.48964545,0.28679463,0.0,0.0,0,1.817618
-0.100979134,0.08901201,0.31226864,-0.28129712,-0.4753059,0.28679055,0.0,0.0,0,1.815933
-0.097727016,0.08248681,0.31225663,-0.2856324,-0.4609666,0.28678647,0.0,0.0,0,1.812903
-0.09447403,0.0758669,0.31224495,-0.28996775,-0.4466275,0.28678238,0.0,0.0,1,3.002848
-0.091304876,0.069207154,0.3015356,-0.2911695,-0.42984512,0.3356468,0.0,0.0,1,3.075711
-0.08820858,0.0625042,0.2921232,-0.29267254,-0.41090548,0.37879208,0.0,0.0,1,2.981059
-0.08517027,0.055734884,0.28467095,-0.29543608,-0.39036292,0.41085154,0.0,0.0,0,2.362439
-0.082130626,0.048873577,0.28465027,-0.29978865,-0.36982095,0.41083956,0.0,0.0,0,2.344730
-0.07908964,0.04192029,0.28463057,-0.3041415,-0.34927958,0.41082764,0.0,0.0,0,2.321423
-0.07604732,0.03487502,0.28461185,-0.3084946,-0.3287388,0.41081572,0.0,0.0,0,18.675683
-0.07298975,0.0287922,0.26919648,-0.2624728,-0.29093388,0.7559477,1.0,0.0,0,9.504390
-0.06988945,0.023494659,0.25584507,-0.2256078,-0.23548815,1.1089189,1.0,0.0,0,-1.160961
-0.06670799,0.01865717,0.2512417,-0.20573905,-0.16793989,1.3510921,0.0,0.0,0,7.808815
-0.06350069,0.013931904,0.24950662,-0.20353645,-0.09684597,1.4220456,0.0,0.0,0,7.028295
-0.060325526,0.009130392,0.24760434,-0.21032493,-0.027680166,1.38332,0.0,0.0,2,1.478706
-0.057248782,0.0051274276,0.23816888,-0.1780521,0.04093712,1.3723516,0.0,0.0,2,4.329054
-0.05412836,0.0018096423,0.24242684,-0.15079062,0.10983555,1.3779745,0.0,1.0,2,-1.882856
-0.051259518,-0.0003497505,0.23371658,-0.10106038,0.15942869,0.98752296,0.0,1.0,0,-1.701881
-0.04865389,-0.0020822072,0.23021257,-0.08055628,0.18974033,0.60610455,0.0,1.0,0,0.065529
-0.046277333,-0.0034030343,0.22637972,-0.06019423,0.20103517,0.22583799,0.0,1.0,0,1.798107
-0.044128798,-0.0043242835,0.22246595,-0.03993215,0.19334069,-0.15393703,0.0,1.0,0,2.805424
-0.042144872,-0.004981246,0.21968119,-0.026570225,0.17192762,-0.4283206,0.0,1.0,0,2.998264
-0.04022627,-0.0055843852,0.21866247,-0.023940897,0.14508414,-0.5369345,0.0,1.0,0,2.656697
-0.038294505,-0.0062969946,0.21922834,-0.029346712,0.119105786,-0.51959527,0.0,1.0,0,-7.328880
-0.036359977,-0.007102909,0.21939051,-0.03395758,0.09333699,-0.5153952,0.0,0.0,0,2.672925
-0.034425832,-0.007996836,0.21942551,-0.038316716,0.06756966,-0.51536596,0.0,0.0,0,12.040545
-0.032388877,-0.00830554,0.21063189,-0.013435183,0.060755745,-0.13621831,1.0,0.0,0,0.412738
-0.030300904,-0.008439078,0.20782582,-0.00598416,0.06175903,0.02011704,1.0,0.0,0,0.049586
-0.028209496,-0.008649614,0.20757155,-0.009430528,0.06333782,0.0316191,1.0,0.0,1,0.719922
-0.026193237,-0.00895889,0.19815521,-0.01389955,0.066804975,0.06937019,1.0,0.0,1,11.004358
-0.02429695,-0.009219315,0.18793336,-0.0116573265,0.068504676,0.034018613,1.0,1.0,1,1.227664
-0.022523403,-0.009231295,0.17742638,-0.0005352854,0.06844091,-0.0012563796,1.0,1.0,0,0.729064
-0.020810891,-0.008923306,0.17361927,0.01379379,0.06610956,-0.04661428,1.0,1.0,0,0.789608
-0.019150352,-0.008351031,0.1703144,0.025616044,0.06190112,-0.08416052,1.0,1.0,0,0.822123
-0.017524432,-0.007622721,0.16798742,0.032584213,0.056572996,-0.106557645,1.0,1.0,0,0.828338
-0.015913581,-0.0068594003,0.16675436,0.034130678,0.05097814,-0.11189473,1.0,1.0,0,0.778915
-0.014301491,-0.0061614537,0.16642773,0.031189892,0.045831952,-0.1029221,1.0,1.0,0,0.699546
-0.012683201,-0.0055575278,0.16644613,0.026975002,0.04126872,-0.09126225,1.0,1.0,0,-9.354645
-0.011061668,-0.0050305985,0.16619882,0.023525886,0.037272863,-0.07991444,1.0,0.0,0,0.578585
-0.009436989,-0.004580202,0.16594294,0.02010088,0.03384882,-0.0684789,1.0,0.0,1,1.408130
-0.007902145,-0.004225578,0.15466559,0.01578798,0.03268291,-0.023316327,1.0,0.0,1,1.140672
-0.0064552305,-0.0039624358,0.14363715,0.011672127,0.033721518,0.020775916,1.0,0.0,1,10.899845
-0.005098343,-0.0037386322,0.13547416,0.00993957,0.033947516,0.0045150337,1.0,1.0,0,-9.526968
-0.0037795068,-0.0035221959,0.13491061,0.009687536,0.030953435,-0.059883855,0.0,1.0,0,10.539371
-0.002478695,-0.0031802678,0.1327554,0.015249899,0.028323459,-0.05259915,1.0,1.0,0,0.542847
-0.0012003898,-0.002756121,0.13110049,0.018908305,0.025092337,-0.06462256,1.0,1.0,1,1.347239
-2.2315979e-05,-0.0023253583,0.121139884,0.019196045,0.021806315,-0.06572092,1.0,1.0,1,1.472793
0.0010391235,-0.0019040012,0.1094059,0.018770166,0.018581755,-0.064491585,1.0,1.0,0,0.405177
0.0020855903,-0.0014479184,0.10817798,0.020310823,0.015096339,-0.06970902,1.0,1.0,0,0.372516
0.0031214715,-0.0009835744,0.10718836,0.020669814,0.011542412,-0.07107909,1.0,1.0,0,0.344304
0.0041503906,-0.0005330348,0.106397286,0.020045558,0.0080816345,-0.0692163,1.0,1.0,0,0.315988
0.0051745414,-0.00010935307,0.1057232,0.018843342,0.0048103486,-0.06542607,1.0,1.0,0,0.205381
0.0062073707,0.00021644593,0.105846405,0.014486417,0.002277282,-0.050661355,1.0,1.0,0,-9.842061
0.0072433474,0.0004665351,0.10557078,0.011116405,0.00032937297,-0.038958333,1.0,0.0,0,-0.117510
0.0082824705,0.00064098596,0.10529377,0.0077522104,-0.0010312664,-0.027212638,1.0,0.0,1,0.982595
0.009240532,0.0007101512,0.09511931,0.0030748025,-0.00035454126,0.013534618,1.0,0.0,1,-9.425729
0.01013031,0.000685153,0.08654965,-0.0011120097,0.0020383664,0.047858138,0.0,0.0,0,-0.343701
0.011019993,0.0005630231,0.08654965,-0.0054324935,0.004431279,0.04785833,0.0,0.0,0,-0.365066
0.011909676,0.0003437972,0.08654964,-0.0097529795,0.006824222,0.04785853,0.0,0.0,0,-0.386666
0.012799358,2.7439593e-05,0.08654964,-0.014073463,0.009217169,0.0478587,0.0,0.0,0,10.226057
0.013635921,-0.000253942,0.085879296,-0.012493304,0.0070208143,-0.04392702,0.0,1.0,0,0.148172
0.014465332,-0.000614717,0.08578964,-0.016023573,0.004209024,-0.056235902,0.0,1.0,0,10.531619
0.015276814,-0.00061772106,0.08114774,-0.00013480183,0.0042073093,-3.3136523e-05,1.0,1.0,0,0.016685
0.016078567,-0.0006152892,0.08017851,0.00010865682,0.004208691,2.6679812e-05,1.0,1.0,0,0.010135
0.016871452,-0.00061521766,0.07928486,2.3791397e-06,0.0042087296,5.8315175e-07,1.0,1.0,0,0.013253
0.017655183,-0.00061521766,0.07836911,-7.028104e-07,0.0042087184,-1.7567393e-07,1.0,1.0,0,0.014229
0.018429756,-0.00061521766,0.077452704,-2.6048514e-08,0.004208717,-1.1900745e-08,1.0,1.0,0,0.015164
0.01919508,-0.00061521766,0.07653615,6.6863532e-09,0.0042087156,5.1636795e-10,1.0,1.0,0,0.016062
0.019951249,-0.00061521766,0.075619735,7.1070088e-09,0.004208714,-4.5646865e-11,1.0,1.0,0,0.016974
0.02069826,-0.00061521766,0.07470332,6.8060797e-09,0.0042087133,3.1853903e-10,1.0,1.0,0,0.017887
0.02143612,-0.00061521766,0.073786914,6.1856045e-09,0.0042087114,-6.8243033e-10,1.0,1.0,0,0.018800
0.022164822,-0.00061521766,0.07287051,4.9063775e-09,0.00420871,-2.087311e-09,1.0,1.0,0,0.019713
0.022884369,-0.00061521766,0.071954094,3.745696e-09,0.004208708,-1.7856333e-09,1.0,1.0,0,0.020627
0.023594761,-0.00061521766,0.07103769,2.7674634e-09,0.0042087077,-2.9163394e-09,1.0,1.0,0,0.021541
0.024295997,-0.00061521766,0.07012127,1.8026266e-09,0.0042087063,4.895151e-09,1.0,1.0,0,0.022455
0.02498808,-0.00061521766,0.06920487,7.369947e-10,0.004208705,5.489868e-10,1.0,1.0,0,0.023369
0.025671005,-0.00061521766,0.06828846,-5.233043e-10,0.0042087035,5.2438454e-09,1.0,1.0,0,0.024292
0.026344681,-0.00061521766,0.06737205,-1.3201134e-09,0.004208703,5.863901e-11,1.0,1.0,0,0.025207
0.0270092,-0.00061521766,0.06645564,-2.2850482e-09,0.004208701,-1.3170195e-09,1.0,1.0,0,0.026121
0.027664566,-0.00061521766,0.065539226,-3.2499714e-09,0.0042087,-1.6695184e-09,1.0,1.0,0,0.027036
0.028310776,-0.00061521766,0.06462282,-4.2148924e-09,0.004208698,-2.0616964e-09,1.0,1.0,0,0.027950
0.02894783,-0.00061521766,0.06370641,-4.697355e-09,0.0042086975,-2.1786422e-09,1.0,1.0,0,0.028865
0.02957573,-0.00061521766,0.06279,-4.979476e-09,0.0042086956,-1.316507e-09,1.0,1.0,0,0.029780
0.030194473,-0.00061521766,0.061873592,-5.248304e-09,0.004208694,-7.2460804e-10,1.0,1.0,0,0.030695
0.030804062,-0.00061521766,0.060957182,-5.461938e-09,0.0042086923,-8.5375795e-10,1.0,1.0,0,0.031609
0.031404495,-0.00061521766,0.060040772,-5.2074074e-09,0.004208692,-1.5176802e-09,1.0,1.0,0,0.032524
0.031995773,-0.00061521766,0.05912436,-4.4970196e-09,0.00420869,-1.5985794e-09,1.0,1.0,0,0.033439
0.032577895,-0.00061521766,0.05820795,-3.3317114e-09,0.0042086886,3.8789487e-09,1.0,1.0,0,0.034364
0.03315077,-0.00061521766,0.057291545,-1.9982813e-09,0.004208687,5.419147e-09,1.0,1.0,0,0.035279
0.033714484,-0.00061521766,0.056375135,-3.960178e-10,0.004208687,7.194167e-09,1.0,1.0,0,0.036194
0.034269046,-0.00061521766,0.055458724,1.2925028e-09,0.0042086854,-9.672705e-10,1.0,1.0,0,0.037109
0.034814455,-0.00061521766,0.054542314,2.7353715e-09,0.004208684,3.912237e-09,1.0,1.0,0,0.038024
0.035350703,-0.00061521766,0.053625904,3.859665e-09,0.004208682,-1.3340652e-09,1.0,1.0,0,0.038939
0.0358778,-0.00061521766,0.052709498,4.524579e-09,0.0042086816,-2.03776e-09,1.0,1.0,0,0.039855
0.03639574,-0.00061521766,0.051793087,4.738212e-09,0.00420868,-2.2380215e-09,1.0,1.0,0,0.040770
0.036904525,-0.00061521766,0.050876677,5.0203415e-09,0.0042086784,-1.681863e-09,1.0,1.0,0,0.041685
0.037404157,-0.00061521766,0.049960267,4.6518505e-09,0.0042086765,-1.6140798e-09,1.0,1.0,0,0.042600
0.03789463,-0.00061521766,0.049043857,3.986916e-09,0.004208676,-2.4196538e-09,1.0,1.0,0,0.043515
0.03837595,-0.00061521766,0.04812745,3.0905638e-09,0.004208674,3.5796337e-09,1.0,1.0,0,0.044440
0.03884802,-0.00061521766,0.04721104,2.171076e-09,0.004208673,7.645487e-10,1.0,1.0,0,0.045355
0.039310932,-0.00061521766,0.04629463,1.1653054e-09,0.0042086714,5.364262e-09,1.0,1.0,0,0.046271
0.03976469,-0.00061521766,0.04537822,3.6849424e-10,0.004208671,-5.9490815e-11,1.0,1.0,0,0.047186
0.040209293,-0.00061521766,0.04446181,-1.1398059e-10,0.004208669,-1.4365671e-09,1.0,1.0,0,0.048101
0.040644743,-0.00061521766,0.043545403,-5.9644073e-10,0.0042086677,-1.4361811e-09,1.0,1.0,0,0.049017
0.041071035,-0.00061521766,0.042628992,-1.0789001e-09,0.004208666,-1.4358323e-09,1.0,1.0,0,0.049932
0.04148817,-0.00061521766,0.041712582,-1.5613603e-09,0.0042086653,-1.4357256e-09,1.0,1.0,0,0.050847
0.041896153,-0.00061521766,0.040796172,-2.0438182e-09,0.0042086635,-1.4360527e-09,1.0,1.0,0,0.051763
0.04229498,-0.00061521766,0.03987976,-2.5262785e-09,0.004208662,-1.4358291e-09,1.0,1.0,0,0.052678
0.042684652,-0.00061521766,0.038963355,-3.0087395e-09,0.00420866,-1.4356988e-09,1.0,1.0,0,0.053593
0.043065168,-0.00061521766,0.038046945,-3.4911993e-09,0.0042086598,-1.4354647e-09,1.0,1.0,0,0.054518
0.04343643,-0.00061521766,0.037130535,-3.973666e-09,0.004208658,-1.4354123e-09,1.0,1.0,0,0.055434
0.043798544,-0.00061521766,0.036214124,-4.4561204e-09,0.0042086565,-1.4356816e-09,1.0,1.0,0,0.056349
0.044151496,-0.00061521766,0.035297714,-4.9385807e-09,0.0042086546,-1.4356498e-09,1.0,1.0,0,0.057264
0.044495296,-0.00061521766,0.034381308,-5.421039e-09,0.004208654,-1.435115e-09,1.0,1.0,0,0.058180
0.044829942,-0.00061521766,0.033464897,-5.3024976e-09,0.0042086523,-9.128193e-10,1.0,1.0,0,0.059095
0.04515543,-0.00061521766,0.032548487,-5.2074083e-09,0.004208651,-1.639074e-09,1.0,1.0,0,0.060011
0.045471765,-0.00061521766,0.031632077,-4.6973527e-09,0.004208649,-2.225445e-09,1.0,1.0,0,0.060926
0.04577894,-0.00061521766,0.030715669,-4.2148907e-09,0.0042086486,-2.225415e-09,1.0,1.0,0,0.061841
0.046076965,-0.00061521766,0.029799258,-3.7324366e-09,0.0042086467,-2.225407e-09,1.0,1.0,0,0.062757
0.046365835,-0.00061521766,0.02888285,-3.7324375e-09,0.0042086453,-2.2255011e-09,1.0,1.0,0,0.063682
0.04664545,-0.00061521766,0.02796644,-3.7324366e-09,0.0042086435,-2.2258875e-09,1.0,1.0,0,0.064597
0.04691591,-0.00061521766,0.02705003,-3.7324375e-09,0.004208643,-2.2258084e-09,1.0,1.0,0,0.065513
0.047177218,-0.00061521766,0.026133621,-3.732438e-09,0.004208641,-2.2254105e-09,1.0,1.0,0,0.066428
0.04742937,-0.00061521766,0.02521721,-3.7324375e-09,0.0042086397,-2.2255002e-09,1.0,1.0,0,0.067344
0.04767237,-0.00061521766,0.0243008,-3.732437e-09,0.004208638,-2.176535e-09,1.0,1.0,0,0.068259
0.04790621,-0.00061521766,0.023384389,-3.732443e-09,0.0042086374,-2.638957e-09,1.0,1.0,0,0.069175
0.048130892,-0.00061521766,0.022467978,-3.7324415e-09,0.0042086355,-2.6390157e-09,1.0,1.0,0,0.070090
0.048346423,-0.00061521766,0.021551568,-3.7324432e-09,0.004208634,-2.638771e-09,1.0,1.0,0,0.071005
0.0485528,-0.00061521766,0.020635156,-3.732443e-09,0.0042086323,-2.6388158e-09,1.0,1.0,0,0.071921
0.04875002,-0.00061521766,0.019718746,-3.7324432e-09,0.004208632,-2.6389606e-09,1.0,1.0,0,0.072836
0.048938084,-0.00061521766,0.018802334,-3.7324424e-09,0.00420863,-2.6390148e-09,1.0,1.0,0,0.073761
0.0491169,-0.00061521766,0.017885923,-3.7324432e-09,0.0042086286,-2.638774e-09,1.0,1.0,0,0.074677
0.049286555,-0.00061521766,0.016969513,-3.7324424e-09,0.0042086267,-2.638819e-09,1.0,1.0,0,0.075592
0.04944706,-0.00061521766,0.016053101,-3.732443e-09,0.004208626,-2.6389588e-09,1.0,1.0,0,0.076508
0.049598407,-0.00061521766,0.015136691,-3.7324424e-09,0.0042086244,-2.6390168e-09,1.0,1.0,0,0.077423
0.0497406,-0.00061521766,0.01422028,-3.7324432e-09,0.004208623,-2.6387794e-09,1.0,1.0,0,0.078339
0.04987364,-0.00061521766,0.0133038685,-3.732443e-09,0.004208621,-2.6388156e-09,1.0,1.0,0,0.079254
0.04999752,-0.00061521766,0.012387457,-3.5322258e-09,0.00420862,-1.0981234e-08,1.0,1.0,0,0.080169
0.050112247,-0.00061521766,0.011471047,-2.8083396e-09,0.0042086174,-1.4278621e-08,1.0,1.0,0,0.081085
0.05021782,-0.00061521766,0.010554637,-2.2851039e-09,0.0042086164,1.2735763e-08,1.0,1.0,0,0.082000
0.050314236,-0.00061521766,0.009638226,-1.0876502e-09,0.0042086155,1.662314e-08,1.0,1.0,0,0.082916
0.050401498,-0.00061521766,0.008721815,2.5450111e-10,0.004208616,1.667652e-08,1.0,1.0,0,0.083841
0.05047951,-0.00061521766,0.0078054043,1.9021664e-09,0.0042086146,1.2586538e-08,1.0,1.0,0,0.084756
0.050548363,-0.00061521766,0.006888993,3.3772274e-09,0.004208613,7.379241e-10,1.0,1.0,0,0.085672
0.05060806,-0.00061521766,0.005972582,4.738259e-09,0.004208611,-7.1897555e-09,1.0,1.0,0,0.086587
0.050658606,-0.00061521766,0.005056171,5.1021343e-09,0.0042086104,-2.7468905e-09,1.0,1.0,0,0.087503
0.050699998,-0.00061521766,0.0041397605,5.020398e-09,0.004208608,-6.63225e-09,1.0,1.0,0,0.088418
0.050732233,-0.00061521766,0.0032233498,4.4515676e-09,0.004208606,-6.90329e-09,1.0,1.0,0,0.089333
0.05075531,-0.00061521766,0.0023069393,3.3450176e-09,0.004208605,1.1039029e-08,1.0,1.0,0,0.090249
0.050769232,-0.00061521766,0.0013905289,2.4122637e-09,0.004208605,1.1126718e-08,1.0,1.0,0,0.091164
0.050774,-0.00061521766,0.00047411863,6.0509797e-10,0.004208604,1.8277865e-08,1.0,1.0,0,0.032879
0.05077257,-0.00061521766,-0.00014457261,-1.2321289e-07,0.004210792,4.2776916e-05,1.0,1.0,0,-0.010615
0.050770186,-0.00061521766,-0.0002493165,-2.1250774e-07,0.0042145816,7.3771844e-05,1.0,1.0,0,0.013318
0.050769042,-0.00061521766,-0.00011551968,-9.865615e-08,0.0042163394,3.417791e-05,1.0,1.0,0,0.010956
0.05076914,-0.00061521766,5.9625354e-06,4.839978e-09,0.004216238,-1.76623e-06,1.0,1.0,0,-0.003537
0.05076952,-0.00061521766,4.1581632e-05,3.5988887e-08,0.0042156116,-1.2302777e-05,1.0,1.0,0,0.001650
0.050769806,-0.00061521766,2.518824e-05,2.1773891e-08,0.004215219,-7.452318e-06,1.0,1.0,0,0.002235
0.050769806,-0.00061521766,2.8698462e-06,2.934425e-09,0.004215184,-8.467946e-07,1.0,1.0,0,-0.000349
0.05076971,-0.00061521766,-6.3457933e-06,-5.7218728e-09,0.0042152964,1.877853e-06,1.0,1.0,0,0.000128
0.050769616,-0.00061521766,-5.0774834e-06,-4.579921e-09,0.004215381,1.5049436e-06,1.0,1.0,0,0.000381
0.050769616,-0.00061521766,-1.2432376e-06,-9.476392e-10,0.004215405,3.7465415e-07,1.0,1.0,0,0.000041
0.050769616,-0.00061521766,8.463306e-07,8.123506e-10,0.0042153937,-2.4680637e-07,1.0,1.0,0,-0.000010
0.050769616,-0.00061521766,9.585862e-07,9.102322e-10,0.004215381,-2.8008628e-07,1.0,1.0,0,0.000061
0.050769616,-0.00061521766,3.511513e-07,1.7246826e-10,0.004215378,-1.1992077e-07,1.0,1.0,0,0.000026
0.050769616,-0.00061521766,-8.508927e-08,-1.2303017e-10,0.004215382,1.3589225e-08,1.0,1.0,0,-0.000009
0.050769616,-0.00061521766,-1.7145763e-07,-2.366049e-10,0.004215388,5.0348355e-08,1.0,1.0,0,0.000008
0.050769616,-0.00061521766,-8.6016406e-08,-5.47836e-11,0.004215392,1.0136898e-08,1.0,1.0,0,0.000008
0.050769616,-0.00061521766,1.8282924e-09,1.5945194e-10,0.004215395,-6.850937e-09,1.0,1.0,0,-0.000003
0.050769616,-0.00061521766,3.022959e-08,2.0716968e-10,0.004215398,-1.9792626e-08,1.0,1.0,0,0.000001
0.050769616,-0.00061521766,2.1920041e-08,1.4997559e-11,0.0042154007,-2.0641405e-08,1.0,1.0,0,0.000001
0.050769616,-0.00061521766,9.954305e-09,-1.7250196e-10,0.004215403,-2.309961e-08,1.0,1.0,0,0.000001
0.050769616,-0.00061521766,3.845914e-10,-2.2792053e-10,0.0042154067,-2.8959277e-09,1.0,1.0,0,-0.000001
0.050769616,-0.00061521766,-8.988944e-09,-2.822088e-10,0.0042154114,2.307559e-08,1.0,1.0,0,100
0.0049829483,1.4184916,0.5047003,0.3364992,-0.005767192,-0.11432228,0.0,0.0,0,-1.074545
0.009965992,1.4259881,0.504018,0.33314037,-0.011416253,-0.112990715,0.0,0.0,0,-1.075185
0.014949322,1.4333884,0.5040356,0.32885537,-0.017062077,-0.112927005,0.0,0.0,0,-1.066975
0.019932747,1.440692,0.5040523,0.32452935,-0.022707177,-0.11291226,0.0,0.0,0,-1.061138
0.024916362,1.4478987,0.5040688,0.3202047,-0.028351378,-0.11289449,0.0,0.0,0,-1.055299
0.029900074,1.4550089,0.5040854,0.31588078,-0.033994675,-0.1128764,0.0,0.0,0,-1.049400
0.034884166,1.4620221,0.504102,0.31155688,-0.039637104,-0.112858914,0.0,0.0,0,-1.043516
0.039868355,1.4689386,0.50411856,0.30723283,-0.045278646,-0.11284095,0.0,0.0,0,-1.037583
0.044852637,1.475758,0.50413495,0.30290863,-0.050919283,-0.11282323,0.0,0.0,0,-1.031725
0.04983721,1.4824808,0.5041513,0.29858434,-0.056559037,-0.11280552,0.0,0.0,0,-1.025834
0.054821968,1.4891067,0.5041676,0.2942599,-0.06219792,-0.11278786,0.0,0.0,0,-1.019981
0.05980692,1.4956357,0.5041839,0.28993532,-0.067835934,-0.112770244,0.0,0.0,0,-1.014113
0.06479206,1.502068,0.5042,0.28561065,-0.07347305,-0.11275271,0.0,0.0,0,-1.008267
0.06977739,1.5084035,0.504216,0.28128585,-0.07910931,-0.11273527,0.0,0.0,0,-1.002432
0.07476292,1.5146421,0.504232,0.2769609,-0.0847447,-0.11271782,0.0,0.0,0,-0.996609
0.07974863,1.5207839,0.50424784,0.27263588,-0.090379216,-0.1127006,0.0,0.0,0,-0.990814
0.08473454,1.526829,0.50426364,0.2683107,-0.096012875,-0.11268324,0.0,0.0,0,-0.985003
0.089720726,1.5327771,0.5042793,0.26398537,-0.10164567,-0.11266603,0.0,0.0,0,-0.979227
0.09470701,1.5386282,0.504295,0.25965992,-0.10727761,-0.11264886,0.0,0.0,0,-0.973479
0.09969349,1.5443828,0.5043105,0.25533435,-0.1129087,-0.11263174,0.0,0.0,0,-0.967718
0.10468016,1.5500402,0.504326,0.25100866,-0.118538916,-0.11261468,0.0,0.0,0,-0.961998
0.10966711,1.5556011,0.50434124,0.24668285,-0.1241683,-0.112597704,0.0,0.0,0,-0.956265
0.11465426,1.5610648,0.50435644,0.24235691,-0.12979685,-0.11258079,0.0,0.0,0,-0.950589
0.1196415,1.5664318,0.5043715,0.23803087,-0.13542455,-0.11256393,0.0,0.0,0,-0.944933
0.12462902,1.5717021,0.50438654,0.2337047,-0.14105143,-0.112547174,0.0,0.0,0,-0.929126
0.1296092,1.5768661,0.5040629,0.22892937,-0.14707997,-0.12057338,0.0,0.0,0,-0.923144
0.13459483,1.5819213,0.50420123,0.22411244,-0.15270624,-0.11252542,0.0,0.0,0,-0.925388
0.13958053,1.5868798,0.5042006,0.2197898,-0.15833248,-0.11252512,0.0,0.0,0,-0.919905
0.14456625,1.5917416,0.50420004,0.21546717,-0.16395873,-0.112524964,0.0,0.0,0,-0.914434
0.14955206,1.5965066,0.5041994,0.21114452,-0.16958496,-0.11252477,0.0,0.0,0,-0.908964
0.15453787,1.6011746,0.5041988,0.20682189,-0.1752112,-0.1125247,0.0,0.0,0,-0.903531
0.15952368,1.605746,0.5041981,0.20249926,-0.18083742,-0.112524584,0.0,0.0,0,-0.898124
0.16450968,1.6102204,0.5041974,0.19817664,-0.18646364,-0.112524256,0.0,0.0,0,-0.892754
0.16949567,1.6145984,0.5041967,0.19385402,-0.19208983,-0.11252366,0.0,0.0,0,-0.887369
0.17448178,1.6188793,0.5041959,0.18953139,-0.19771601,-0.1125233,0.0,0.0,0,-0.882033
0.17946787,1.6230636,0.5041951,0.18520878,-0.20334217,-0.11252306,0.0,0.0,0,-0.876730
0.18445405,1.6271511,0.5041944,0.18088616,-0.20896831,-0.1125228,0.0,0.0,0,-0.871414
0.18944034,1.6311417,0.50419354,0.17656353,-0.21459444,-0.11252256,0.0,0.0,0,-0.866153
0.19442654,1.6350355,0.5041927,0.17224093,-0.22022054,-0.11252233,0.0,0.0,0,-0.860896
0.19941282,1.6388326,0.5041918,0.16791831,-0.22584663,-0.11252208,0.0,0.0,0,-0.855689
0.2043992,1.6425328,0.5041909,0.1635957,-0.23147275,-0.11252183,0.0,0.0,0,-0.850486
0.20938568,1.6461363,0.50419,0.1592731,-0.23709881,-0.1125216,0.0,0.0,0,-0.845321
0.21437216,1.6496431,0.5041891,0.15495051,-0.24272488,-0.11252135,0.0,0.0,0,-0.840170
0.21935873,1.653053,0.5041881,0.15062791,-0.24835093,-0.11252111,0.0,0.0,0,-0.835048
0.22434549,1.6563661,0.50418717,0.14630532,-0.253977,-0.11252086,0.0,0.0,0,-0.829952
0.22933225,1.6595824,0.50418615,0.14198275,-0.25960302,-0.11252059,0.0,0.0,0,-0.824875
0.23431902,1.662702,0.50418514,0.13766016,-0.26522905,-0.11252032,0.0,0.0,0,-0.819833
0.23930597,1.6657248,0.5041841,0.13333757,-0.27085504,-0.11252008,0.0,0.0,0,-0.814791
0.24429293,1.6686506,0.50418305,0.12901501,-0.27648103,-0.11251982,0.0,0.0,0,-0.809795
0.24927989,1.6714797,0.504182,0.12469244,-0.282107,-0.11251956,0.0,0.0,0,-0.804830
0.25426704,1.6742121,0.50418085,0.120369874,-0.28773293,-0.11251934,0.0,0.0,0,-0.799879
0.25925416,1.6768477,0.5041798,0.11604731,-0.2933589,-0.11251906,0.0,0.0,0,-0.794942
0.2642414,1.6793864,0.50417864,0.11172475,-0.29898483,-0.1125188,0.0,0.0,0,-0.790053
0.26922885,1.6818285,0.50417745,0.1074022,-0.30461076,-0.11251857,0.0,0.0,0,-0.785163
0.27421626,1.6841736,0.50417626,0.10307965,-0.31023666,-0.11251835,0.0,0.0,0,-0.780303
0.2792039,1.686422,0.50417507,0.0987571,-0.31586257,-0.11251806,0.0,0.0,0,-0.775471
0.28419143,1.6885735,0.5041739,0.09443455,-0.32148847,-0.11251782,0.0,0.0,0,-0.770668
0.28917915,1.6906283,0.5041726,0.09011202,-0.32711434,-0.11251758,0.0,0.0,0,-0.765879
0.29416686,1.6925862,0.5041714,0.085789494,-0.33274022,-0.11251732,0.0,0.0,0,-0.761118
0.29915476,1.6944474,0.50417006,0.08146699,-0.33836606,-0.11251706,0.0,0.0,0,-0.756380
0.30414277,1.6962118,0.50416875,0.07714447,-0.3439919,-0.112516835,0.0,0.0,0,-0.751660
0.30913085,1.6978793,0.50416744,0.072821945,-0.34961775,-0.112516604,0.0,0.0,0,-0.746950
0.31411904,1.69945,0.50416607,0.06849944,-0.35524356,-0.11251636,0.0,0.0,0,-0.742285
0.31910723,1.700924,0.5041647,0.06417693,-0.36086938,-0.11251608,0.0,0.0,0,-0.737615
0.32409564,1.702301,0.5041633,0.059854437,-0.36649516,-0.11251583,0.0,0.0,0,-0.732992
0.329084,1.7035813,0.50416195,0.055531945,-0.37212095,-0.11251559,0.0,0.0,0,-0.728382
0.3340726,1.704765,0.50416046,0.05120946,-0.3777467,-0.112515345,0.0,0.0,0,-0.723788
0.33906126,1.7058518,0.504159,0.04688698,-0.38337246,-0.11251507,0.0,0.0,0,-0.719217
0.3440501,1.7068417,0.5041575,0.042564504,-0.3889982,-0.112514816,0.0,0.0,0,-0.714658
0.349039,1.7077347,0.504156,0.038242035,-0.39462394,-0.11251458,0.0,0.0,0,-0.710132
0.35402793,1.7085311,0.5041545,0.033919565,-0.40024966,-0.11251434,0.0,0.0,0,-0.705600
0.35901707,1.7092304,0.50415295,0.029597105,-0.40587536,-0.1125141,0.0,0.0,0,-0.701091
0.36400622,1.709833,0.50415134,0.025274653,-0.41150105,-0.11251384,0.0,0.0,0,-0.696624
0.36899558,1.7103388,0.50414973,0.020952204,-0.41712672,-0.11251359,0.0,0.0,0,-0.692178
0.3739851,1.710748,0.5041481,0.016629765,-0.42275238,-0.11251335,0.0,0.0,0,-0.687712
0.37897462,1.71106,0.50414646,0.012307328,-0.42837805,-0.1125131,0.0,0.0,0,-0.683292
0.38396424,1.7112756,0.5041448,0.0079849,-0.43400365,-0.11251281,0.0,0.0,0,-0.678885
0.38895407,1.7113941,0.5041431,0.0036624772,-0.4396293,-0.11251255,0.0,0.0,0,-0.674487
0.39394397,1.7114159,0.50414145,-0.00065993855,-0.4452549,-0.11251231,0.0,0.0,0,-0.670099
0.39893398,1.7113408,0.5041397,-0.004982348,-0.45088047,-0.11251204,0.0,0.0,0,-0.665737
0.40392417,1.7111688,0.504138,-0.009304751,-0.45650604,-0.11251179,0.0,0.0,0,-0.661396
0.40891448,1.7109002,0.5041362,-0.013627148,-0.46213162,-0.112511516,0.0,0.0,0,-0.657061
0.41390485,1.7105347,0.5041345,-0.01794954,-0.4677572,-0.11251128,0.0,0.0,0,-0.652740
0.41889542,1.7100723,0.5041327,-0.022271924,-0.47338274,-0.112511024,0.0,0.0,0,-0.648412
0.423886,1.709513,0.5041309,-0.0265943,-0.4790083,-0.112510785,0.0,0.0,0,-0.644135
0.42887688,1.7088569,0.50412905,-0.03091667,-0.4846338,-0.112510525,0.0,0.0,0,-0.639850
0.43386784,1.7081041,0.5041272,-0.035239037,-0.49025932,-0.1125103,0.0,0.0,0,-0.635598
0.4388589,1.7072545,0.50412536,-0.039561395,-0.49588484,-0.11251005,0.0,0.0,0,-0.631336
0.44385004,1.7063081,0.50412345,-0.04388375,-0.5015103,-0.1125098,0.0,0.0,0,-0.627097
0.4488414,1.7052648,0.50412154,-0.048206095,-0.5071358,-0.112509534,0.0,0.0,0,-0.622849
0.4538328,1.7041246,0.5041196,-0.052528434,-0.5127613,-0.11250931,0.0,0.0,0,-0.618642
0.45882446,1.7028875,0.5041176,-0.056850757,-0.5183867,-0.11250906,0.0,0.0,0,-0.614431
0.46381617,1.7015538,0.50411564,-0.06117308,-0.52401215,-0.112508796,0.0,0.0,0,-0.610223
0.468808,1.700123,0.5041136,-0.065495394,-0.5296376,-0.11250852,0.0,0.0,0,-0.606057
0.4738,1.6985955,0.50411165,-0.069817685,-0.535263,-0.112508275,0.0,0.0,0,-0.601902
0.4787922,1.6969713,0.5041096,-0.07413998,-0.5408884,-0.11250802,0.0,0.0,0,-0.597720
0.4837846,1.69525,0.5041076,-0.07846227,-0.5465138,-0.11250778,0.0,0.0,0,-0.593568
0.48877698,1.6934321,0.5041055,-0.08278455,-0.55213916,-0.11250752,0.0,0.0,0,-0.589428
0.49376956,1.6915171,0.5041034,-0.08710683,-0.55776453,-0.11250725,0.0,0.0,0,-0.585289
0.4987623,1.6895053,0.50410134,-0.09142911,-0.5633899,-0.112507,0.0,0.0,0,-0.581192
0.5037553,1.6873969,0.5040992,-0.09575137,-0.5690152,-0.11250671,0.0,0.0,0,-0.577069
0.50874823,1.6851914,0.50409704,-0.100073606,-0.5746405,-0.112506464,0.0,0.0,0,-0.572980
0.5137415,1.6828892,0.5040949,-0.10439586,-0.5802658,-0.11250621,0.0,0.0,0,-0.568892
0.5187348,1.68049,0.5040927,-0.10871809,-0.5858911,-0.11250597,0.0,0.0,0,-0.564822
0.5237284,1.6779941,0.5040905,-0.11304032,-0.59151644,-0.11250575,0.0,0.0,0,-0.560754
0.528722,1.6754013,0.5040883,-0.11736254,-0.5971417,-0.11250547,0.0,0.0,0,-0.556702
0.53371584,1.6727116,0.5040861,-0.12168475,-0.60276693,-0.11250522,0.0,0.0,0,-0.552663
0.53870976,1.6699252,0.5040838,-0.12600695,-0.6083922,-0.112504974,0.0,0.0,0,-0.548637
0.5437039,1.6670418,0.50408155,-0.13032915,-0.6140174,-0.11250474,0.0,0.0,0,-0.544620
0.5486983,1.6640617,0.5040792,-0.13465135,-0.6196427,-0.112504505,0.0,0.0,0,-0.540595
0.5536927,1.6609845,0.50407684,-0.13897353,-0.62526786,-0.112504266,0.0,0.0,0,-0.536638
0.5586874,1.6578107,0.5040745,-0.14329572,-0.63089305,-0.11250403,0.0,0.0,0,-0.532633
0.5636822,1.6545398,0.5040722,-0.14761788,-0.63651824,-0.11250378,0.0,0.0,0,-0.528685
0.5686771,1.6511723,0.50406986,-0.15194003,-0.6421434,-0.11250353,0.0,0.0,0,-0.524720
0.5736723,1.6477077,0.5040675,-0.15626217,-0.6477686,-0.11250329,0.0,0.0,0,-0.520778
0.5786675,1.6441463,0.5040651,-0.1605843,-0.65339375,-0.11250307,0.0,0.0,0,-0.516859
0.5836631,1.6404881,0.50406265,-0.16490643,-0.6590189,-0.11250281,0.0,0.0,0,-0.512957
0.5886588,1.636733,0.5040602,-0.16922854,-0.664644,-0.11250256,0.0,0.0,0,-0.509059
0.5936545,1.632881,0.50405777,-0.17355064,-0.67026913,-0.11250232,0.0,0.0,0,-0.505178
0.5986506,1.6289321,0.50405526,-0.17787272,-0.67589426,-0.112502076,0.0,0.0,0,-0.501321
0.60364664,1.6248864,0.5040528,-0.1821948,-0.6815193,-0.112501815,0.0,0.0,0,-0.497488
0.6086432,1.6207438,0.5040504,-0.18651687,-0.6871444,-0.11250158,0.0,0.0,0,-0.493667
0.61363983,1.6165043,0.5040478,-0.19083892,-0.69276947,-0.11250131,0.0,0.0,0,-0.489857
0.6186363,1.612168,0.5040453,-0.19516097,-0.69839454,-0.11250104,0.0,0.0,0,-0.486087
0.6236332,1.6077348,0.50404274,-0.199483,-0.7040196,-0.1125008,0.0,0.0,0,-0.482313
0.6286303,1.6032047,0.50404024,-0.20380504,-0.7096446,-0.11250057,0.0,0.0,0,-0.478572
0.63362753,1.5985777,0.5040376,-0.20812708,-0.7152696,-0.11250033,0.0,0.0,0,-0.474866
0.63862497,1.5938538,0.50403506,-0.2124491,-0.72089463,-0.11250011,0.0,0.0,0,-0.471163
0.6436226,1.589033,0.50403243,-0.21677111,-0.72651964,-0.11249985,0.0,0.0,0,-0.467505
0.6486204,1.5841155,0.50402975,-0.2210931,-0.7321446,-0.11249958,0.0,0.0,0,-0.463845
0.65361845,1.5791008,0.50402707,-0.22541508,-0.73776954,-0.112499334,0.0,0.0,0,-0.460238
0.65861666,1.5739894,0.5040244,-0.22973706,-0.7433945,-0.11249908,0.0,0.0,0,-0.456666
0.66361487,1.5687811,0.50402176,-0.23405904,-0.74901944,-0.11249882,0.0,0.0,0,-0.453107
0.66861343,1.563476,0.504019,-0.23838097,-0.7546444,-0.11249857,0.0,0.0,0,-0.449585
0.67361224,1.5580739,0.5040163,-0.24270293,-0.7602693,-0.11249836,0.0,0.0,0,-0.446082
0.67861116,1.5525749,0.50401354,-0.24702485,-0.7658942,-0.11249813,0.0,0.0,0,-0.442636
0.6836103,1.546979,0.5040108,-0.25134677,-0.77151906,-0.11249789,0.0,0.0,0,-0.439224
0.6886099,1.5412862,0.50400805,-0.2556687,-0.77714396,-0.11249767,0.0,0.0,0,-0.435820
0.6936094,1.5354966,0.50400525,-0.2599906,-0.78276885,-0.11249741,0.0,0.0,0,-0.432466
0.698609,1.52961,0.50400245,-0.2643125,-0.7883937,-0.112497166,0.0,0.0,0,-0.429163
0.7036089,1.5236264,0.5039996,-0.26863444,-0.7940185,-0.11249693,0.0,0.0,0,-0.425899
0.708609,1.517546,0.5039968,-0.27295628,-0.79964334,-0.112496674,0.0,0.0,0,-0.422683
0.7136095,1.5113689,0.50399387,-0.2772781,-0.80526817,-0.11249642,0.0,0.0,0,-0.419482
0.71861,1.5050945,0.503991,-0.2815999,-0.810893,-0.11249616,0.0,0.0,0,-0.416360
0.7236107,1.4987234,0.5039881,-0.28592175,-0.8165178,-0.11249592,0.0,0.0,0,-0.413274
0.7286116,1.4922553,0.50398517,-0.2902436,-0.82214254,-0.112495676,0.0,0.0,0,-0.410256
0.73361284,1.4856905,0.50398225,-0.29456538,-0.8277673,-0.11249542,0.0,0.0,0,-0.407265
0.7386141,1.4790286,0.5039793,-0.29888722,-0.8333921,-0.11249516,0.0,0.0,0,-0.404348
0.74361575,1.4722698,0.5039764,-0.30320898,-0.83901685,-0.11249491,0.0,0.0,0,-0.401464
0.74861753,1.465414,0.50397336,-0.30753076,-0.84464157,-0.11249463,0.0,0.0,0,-0.398667
0.75361955,1.4584615,0.5039704,-0.3118525,-0.85026634,-0.11249439,0.0,0.0,0,-0.395907
0.7586218,1.451412,0.5039674,-0.3161743,-0.85589105,-0.112494156,0.0,0.0,0,-0.393219
0.763624,1.4442656,0.50396436,-0.32049605,-0.86151576,-0.11249391,0.0,0.0,0,-0.390600
0.7686266,1.4370222,0.5039614,-0.32481778,-0.8671405,-0.11249367,0.0,0.0,0,-0.388053
0.77362955,1.4296819,0.50395834,-0.32913953,-0.8727651,-0.11249342,0.0,0.0,0,-0.385552
0.7786325,1.4222447,0.50395525,-0.3334612,-0.8783898,-0.11249316,0.0,0.0,0,-0.383145
0.7836359,1.4147105,0.5039522,-0.33778286,-0.8840144,-0.11249288,0.0,0.0,0,-0.380813
0.7886394,1.4070795,0.5039491,-0.34210452,-0.8896391,-0.112492636,0.0,0.0,0,-0.378531
0.793643,1.3993514,0.50394595,-0.3464262,-0.8952637,-0.11249238,0.0,0.0,0,-0.376356
0.7986469,1.3915263,0.50394285,-0.35074785,-0.90088826,-0.11249212,0.0,0.0,0,-0.374271
0.80365103,1.3836044,0.5039397,-0.35506952,-0.90651286,-0.11249188,0.0,0.0,0,-0.372266
0.80865556,1.3755856,0.5039365,-0.35939115,-0.91213745,-0.11249159,0.0,0.0,0,-0.370343
0.81366,1.3674698,0.50393337,-0.36371276,-0.91776204,-0.11249135,0.0,0.0,0,-0.368503
0.8186649,1.359257,0.5039302,-0.3680344,-0.9233866,-0.11249107,0.0,0.0,0,-0.366761
0.8236698,1.3509473,0.50392705,-0.37235597,-0.9290111,-0.11249081,0.0,0.0,0,-0.365143
0.8286751,1.3425407,0.50392383,-0.37667754,-0.93463564,-0.11249058,0.0,0.0,0,-0.363592
0.8336805,1.3340371,0.5039207,-0.38099912,-0.9402602,-0.11249032,0.0,0.0,0,-0.362184
0.83868635,1.3254366,0.5039175,-0.3853207,-0.9458847,-0.11249007,0.0,0.0,0,-0.360842
0.8436924,1.3167391,0.50391424,-0.38964224,-0.9515092,-0.112489805,0.0,0.0,0,-0.359628
0.84869844,1.3079447,0.503911,-0.39396378,-0.95713365,-0.112489566,0.0,0.0,0,-0.358515
0.85370463,1.2990532,0.5039078,-0.39828533,-0.9627581,-0.112489305,0.0,0.0,0,-0.357563
0.8587114,1.2900648,0.5039045,-0.40260684,-0.9683826,-0.112489045,0.0,0.0,0,-0.356678
0.8637182,1.2809795,0.5039012,-0.40692836,-0.974007,-0.112488806,0.0,0.0,0,-0.355960
0.8687254,1.2717972,0.5038979,-0.41124982,-0.9796315,-0.11248855,0.0,0.0,0,-0.355348
0.87373275,1.2625179,0.5038946,-0.4155713,-0.9852559,-0.11248833,0.0,0.0,0,-0.354882
0.8787403,1.2531418,0.5038913,-0.4198928,-0.9908803,-0.112488076,0.0,0.0,0,-0.354540
0.88374805,1.2436687,0.5038879,-0.42421424,-0.9965047,-0.11248783,0.0,0.0,0,-0.354328
0.888756,1.2340984,0.50388455,-0.42853564,-1.0021291,-0.112487614,0.0,0.0,0,-0.354294
0.8937643,1.2244312,0.5038812,-0.43285707,-1.0077535,-0.11248733,0.0,0.0,0,-0.354402
0.89877284,1.2146672,0.5038779,-0.43717846,-1.0133778,-0.11248706,0.0,0.0,0,-0.354642
0.9037817,1.204806,0.50387454,-0.44149983,-1.0190021,-0.11248682,0.0,0.0,0,-0.355049
0.9087906,1.1948478,0.50387114,-0.44582123,-1.0246264,-0.11248656,0.0,0.0,0,-0.355629
0.91379964,1.184793,0.50386775,-0.4501426,-1.0302507,-0.11248632,0.0,0.0,0,-0.356368
0.9188091,1.1746409,0.5038643,-0.454464,-1.035875,-0.11248604,0.0,0.0,0,-0.357276
0.92381895,1.1643918,0.50386083,-0.45878538,-1.0414993,-0.1124858,0.0,0.0,0,-0.358387
0.928829,1.1540458,0.5038574,-0.46310672,-1.0471236,-0.11248555,0.0,0.0,0,-0.359626
0.933839,1.1436028,0.5038539,-0.46742806,-1.0527478,-0.112485304,0.0,0.0,0,-0.361095
0.93884945,1.1330628,0.50385046,-0.47174937,-1.0583721,-0.112485036,0.0,0.0,0,-0.362750
0.94386005,1.1224259,0.503847,-0.4760707,-1.0639964,-0.1124848,0.0,0.0,0,-0.364573
0.948871,1.111692,0.50384355,-0.48039198,-1.0696206,-0.11248455,0.0,0.0,0,-0.366610
0.9538822,1.100861,0.50384,-0.48471326,-1.0752448,-0.11248432,0.0,0.0,0,-0.368870
0.9588938,1.089933,0.5038365,-0.48903453,-1.080869,-0.11248408,0.0,0.0,0,-0.371312
0.96390533,1.0789081,0.503833,-0.49335578,-1.0864931,-0.11248384,0.0,0.0,0,-0.373988
0.96891725,1.067786,0.5038295,-0.49767703,-1.0921173,-0.112483576,0.0,0.0,0,-0.376895
0.9739294,1.0565671,0.503826,-0.50199825,-1.0977415,-0.112483345,0.0,0.0,0,-0.379998
0.97894174,1.045251,0.50382245,-0.50631946,-1.1033657,-0.11248307,0.0,0.0,0,-0.383379
0.9839546,1.0338379,0.50381887,-0.5106407,-1.1089898,-0.11248282,0.0,0.0,0,-0.386955
0.9889673,1.022328,0.5038153,-0.51496184,-1.114614,-0.112482585,0.0,0.0,0,-0.390794
0.9939804,1.010721,0.5038117,-0.519283,-1.1202382,-0.112482324,0.0,0.0,0,-0.394879
0.9989939,0.999017,0.5038081,-0.52360415,-1.1258622,-0.112482056,0.0,0.0,0,-100
0.00047073365,1.4125749,0.047658954,0.0735505,-0.00053861307,-0.010795479,0.0,0.0,0,0.069877
0.00094127655,1.4141549,0.04759473,0.07021914,-0.0010720725,-0.0106692705,0.0,0.0,0,0.151225
0.0014118195,1.4156379,0.047596402,0.06591155,-0.0016052087,-0.010663747,0.0,0.0,0,0.154464
0.0018824578,1.4170237,0.047597997,0.061586797,-0.0021382642,-0.01066217,0.0,0.0,0,0.154945
0.0023530007,1.4183121,0.047599576,0.057265062,-0.0026712283,-0.010660505,0.0,0.0,0,0.154383
0.002823639,1.4195032,0.047601156,0.052943412,-0.0032041278,-0.010658843,0.0,0.0,0,0.152332
0.0032942772,1.4205973,0.04760273,0.048621807,-0.0037369335,-0.010657197,0.0,0.0,0,0.148578
0.0037649155,1.4215943,0.0476043,0.044300146,-0.004269659,-0.010655538,0.0,0.0,0,0.142890
0.004235649,1.4224937,0.047605865,0.039978452,-0.004802307,-0.01065389,0.0,0.0,0,0.134961
0.0047062873,1.423296,0.04760743,0.035656724,-0.0053348737,-0.010652246,0.0,0.0,0,0.124507
0.005177021,1.4240012,0.047608983,0.03133496,-0.0058673476,-0.010650607,0.0,0.0,0,0.111353
0.0056476593,1.4246091,0.04761053,0.027013155,-0.006399729,-0.010648979,0.0,0.0,0,0.095242
0.006118393,1.4251196,0.04761208,0.022691317,-0.006932041,-0.010647354,0.0,0.0,0,0.076085
0.006589127,1.425533,0.047613617,0.018369442,-0.0074642748,-0.010645734,0.0,0.0,0,0.053974
0.0070599555,1.425849,0.047615156,0.01404752,-0.007996427,-0.010644125,0.0,0.0,0,0.029085
0.0075306892,1.4260681,0.04761669,0.00972556,-0.0085285045,-0.010642517,0.0,0.0,0,0.001977
0.008001518,1.4261897,0.047618214,0.005403554,-0.009060507,-0.010640925,0.0,0.0,0,-0.026729
0.008472252,1.4262141,0.047619734,0.0010815021,-0.009592422,-0.010639341,0.0,0.0,0,-0.056113
0.008943081,1.4261411,0.04762125,-0.0032405823,-0.010124266,-0.010637747,0.0,0.0,0,-0.085284
0.00941391,1.425971,0.047622755,-0.007562697,-0.010656028,-0.010636151,0.0,0.0,0,-0.113282
0.009884834,1.4257036,0.04762426,-0.0118848365,-0.011187714,-0.010634561,0.0,0.0,0,-0.139350
0.0103556635,1.4253392,0.047625758,-0.016207013,-0.011719317,-0.010632983,0.0,0.0,0,-0.162874
0.010826588,1.4248774,0.04762725,-0.020529214,-0.012250846,-0.010631412,0.0,0.0,0,-0.183496
0.011297417,1.4243182,0.047628738,-0.024851449,-0.012782281,-0.010629848,0.0,0.0,0,-0.201119
0.011768341,1.423662,0.04763022,-0.029173722,-0.01331364,-0.010628252,0.0,0.0,0,-0.267402
0.012239074,1.422887,0.047612213,-0.034449697,-0.013845008,-0.010627173,0.0,0.0,0,-0.229556
0.0127099035,1.4220148,0.047612216,-0.038769722,-0.014376369,-0.010627168,0.0,0.0,0,-0.238157
0.013180638,1.4210455,0.047612216,-0.043089747,-0.014907727,-0.010627166,0.0,0.0,0,-0.244433
0.013651466,1.4199787,0.047612216,-0.047409773,-0.015439101,-0.010627164,0.0,0.0,0,-0.248717
0.014122295,1.418815,0.047612213,-0.0517298,-0.01597045,-0.010627161,0.0,0.0,0,-0.251203
0.014593029,1.417554,0.047612216,-0.056049824,-0.016501825,-0.010627175,0.0,0.0,0,-0.252159
0.015063858,1.4161959,0.047612216,-0.06036985,-0.01703319,-0.010627152,0.0,0.0,0,-0.251772
0.015534592,1.4147406,0.047612216,-0.064689875,-0.017564548,-0.010627131,0.0,0.0,0,-0.250254
0.016005421,1.413188,0.047612213,-0.06900989,-0.018095916,-0.0106271515,0.0,0.0,0,-0.247735
0.016476154,1.4115381,0.047612213,-0.073329926,-0.018627282,-0.010627146,0.0,0.0,0,-0.244379
0.016946983,1.4097912,0.047612213,-0.07764996,-0.019158645,-0.010627146,0.0,0.0,0,-0.240276
0.017417718,1.4079471,0.04761221,-0.08196999,-0.019690005,-0.010627163,0.0,0.0,0,-0.235556
0.017888546,1.4060056,0.04761221,-0.086290024,-0.020221373,-0.010627175,0.0,0.0,0,-0.230286
0.018359374,1.4039671,0.04761221,-0.09061006,-0.020752735,-0.010627175,0.0,0.0,0,-0.224527
0.01883011,1.4018314,0.047612213,-0.09493009,-0.021284096,-0.010627188,0.0,0.0,0,-0.218354
0.019300938,1.3995984,0.04761221,-0.09925012,-0.021815458,-0.010627158,0.0,0.0,0,-0.211835
0.01977167,1.3972683,0.047612205,-0.10357015,-0.022346826,-0.010627177,0.0,0.0,0,-0.205002
0.020242501,1.394841,0.04761221,-0.107890174,-0.022878196,-0.01062716,0.0,0.0,0,-0.197875
0.020713234,1.3923163,0.04761221,-0.1122102,-0.02340956,-0.010627189,0.0,0.0,0,-0.190506
0.021184063,1.3896946,0.04761221,-0.116530225,-0.023940928,-0.010627193,0.0,0.0,0,-0.182949
0.021654893,1.3869758,0.047612205,-0.12085025,-0.02447229,-0.010627189,0.0,0.0,0,-0.175161
0.022125626,1.3841594,0.047612205,-0.12517028,-0.02500366,-0.010627192,0.0,0.0,0,-0.167231
0.022596454,1.3812461,0.0476122,-0.1294903,-0.025535032,-0.010627208,0.0,0.0,0,-0.159152
0.023067188,1.3782356,0.047612205,-0.13381033,-0.026066402,-0.010627382,0.0,0.0,0,-0.150923
0.023538018,1.3751278,0.047612205,-0.13813035,-0.026597777,-0.0106274,0.0,0.0,0,-0.142590
0.02400875,1.3719229,0.0476122,-0.14245038,-0.027129158,-0.01062739,0.0,0.0,0,-0.134135
0.02447958,1.3686206,0.047612198,-0.14677042,-0.027660543,-0.010627373,0.0,0.0,0,-0.125608
0.02495041,1.3652215,0.047612198,-0.15109044,-0.02819191,-0.0106273545,0.0,0.0,0,-0.116969
0.025421143,1.3617251,0.047612198,-0.15541048,-0.02872328,-0.010627351,0.0,0.0,0,-0.108251
0.02589197,1.3581313,0.047612194,-0.15973051,-0.029254666,-0.010627328,0.0,0.0,0,-0.099474
0.026362706,1.3544405,0.047612198,-0.16405055,-0.02978603,-0.010627321,0.0,0.0,0,-0.090633
0.026833534,1.3506525,0.047612194,-0.16837057,-0.030317394,-0.010627316,0.0,0.0,0,-0.081705
0.027304268,1.3467671,0.04761219,-0.17269062,-0.030848749,-0.010627287,0.0,0.0,0,-0.072767
0.027774906,1.3427846,0.047612187,-0.17701064,-0.031380106,-0.010627291,0.0,0.0,0,-0.063752
0.028245639,1.338705,0.047612187,-0.18133068,-0.031911466,-0.010627277,0.0,0.0,0,-0.054706
0.028716277,1.3345282,0.047612183,-0.18565072,-0.03244282,-0.0106272735,0.0,0.0,0,-0.045591
0.029187012,1.330254,0.047612187,-0.18997075,-0.032974172,-0.010627265,0.0,0.0,0,-0.036482
0.02965765,1.3258827,0.047612187,-0.19429079,-0.033505525,-0.010627245,0.0,0.0,0,-0.027311
0.030128384,1.3214142,0.047612187,-0.19861081,-0.034036882,-0.010627256,0.0,0.0,0,-0.018122
0.030599117,1.3168486,0.047612187,-0.20293085,-0.03456824,-0.010627265,0.0,0.0,0,-0.008887
0.031069756,1.3121858,0.047612183,-0.20725088,-0.035099577,-0.010627243,0.0,0.0,0,0.000355
0.03154049,1.3074257,0.047612183,-0.21157092,-0.035630934,-0.0106272055,0.0,0.0,0,0.009638
0.03201113,1.3025684,0.04761218,-0.21589094,-0.0361623,-0.010627205,0.0,0.0,0,0.018931
0.03248186,1.297614,0.047612175,-0.22021098,-0.036693644,-0.010627212,0.0,0.0,0,0.028258
0.032952596,1.2925622,0.04761217,-0.224531,-0.037225004,-0.010627242,0.0,0.0,0,0.037591
0.033423234,1.2874134,0.047612168,-0.22885102,-0.037756357,-0.010627277,0.0,0.0,0,0.046940
0.033893965,1.2821674,0.047612168,-0.23317103,-0.038287725,-0.010627301,0.0,0.0,0,0.056324
0.034364603,1.2768242,0.047612168,-0.23749106,-0.03881906,-0.010627279,0.0,0.0,0,0.065719
0.03483534,1.2713836,0.047612168,-0.24181105,-0.039350424,-0.010627257,0.0,0.0,0,0.075116
0.035306074,1.265846,0.047612168,-0.24613105,-0.039881784,-0.010627231,0.0,0.0,0,0.084541
0.035776712,1.2602111,0.047612168,-0.25045106,-0.040413138,-0.010627217,0.0,0.0,0,0.093950
0.036247443,1.2544792,0.047612168,-0.25477105,-0.040944483,-0.010627227,0.0,0.0,0,0.103398
0.03671808,1.24865,0.047612168,-0.25909105,-0.04147583,-0.0106272185,0.0,0.0,0,0.112855
0.037188817,1.2427235,0.047612164,-0.26341107,-0.04200718,-0.010627189,0.0,0.0,0,0.122289
0.03765955,1.2367,0.04761216,-0.26773113,-0.04253854,-0.010627196,0.0,0.0,0,0.131784
0.038130186,1.2305791,0.04761216,-0.2720512,-0.043069888,-0.010627172,0.0,0.0,0,0.141241
0.03860092,1.2243613,0.047612157,-0.2763712,-0.043601237,-0.010627199,0.0,0.0,0,0.150750
0.03907156,1.2180461,0.047612153,-0.28069127,-0.044132587,-0.010627203,0.0,0.0,0,0.160224
0.039542295,1.2116338,0.047612153,-0.2850113,-0.044663955,-0.010627208,0.0,0.0,0,0.169749
0.040013026,1.2051241,0.047612153,-0.28933132,-0.0451953,-0.010627223,0.0,0.0,0,0.179237
0.040483665,1.1985174,0.047612153,-0.2936513,-0.04572664,-0.010627213,0.0,0.0,0,0.188773
0.0409544,1.1918133,0.04761215,-0.2979713,-0.046258,-0.010627183,0.0,0.0,0,0.198268
0.041425038,1.1850122,0.047612146,-0.30229133,-0.04678936,-0.01062715,0.0,0.0,0,0.207803
0.04189577,1.1781139,0.04761214,-0.30661133,-0.04732071,-0.010627149,0.0,0.0,0,0.217338
0.042366505,1.1711183,0.047612138,-0.3109313,-0.047852065,-0.010627145,0.0,0.0,0,0.226866
0.042837143,1.1640255,0.047612138,-0.3152513,-0.04838341,-0.010627121,0.0,0.0,0,0.236394
0.043307878,1.1568356,0.047612134,-0.3195713,-0.04891477,-0.010627114,0.0,0.0,0,0.245944
0.04377861,1.1495484,0.04761213,-0.32389125,-0.04944611,-0.010627141,0.0,0.0,0,0.255495
0.044249248,1.142164,0.047612127,-0.32821125,-0.04997745,-0.010627119,0.0,0.0,0,0.265034
0.044719983,1.1346824,0.047612123,-0.33253124,-0.050508793,-0.010627099,0.0,0.0,0,0.274575
0.04519062,1.1271037,0.047612123,-0.3368512,-0.05104015,-0.0106271235,0.0,0.0,0,0.284135
0.045661353,1.1194277,0.04761212,-0.3411712,-0.05157149,-0.010627089,0.0,0.0,0,0.293681
0.046132088,1.1116546,0.047612116,-0.3454912,-0.052102834,-0.010627069,0.0,0.0,0,0.303244
0.046602726,1.1037842,0.047612116,-0.34981117,-0.05263418,-0.01062707,0.0,0.0,0,0.312794
0.04707346,1.0958167,0.04761212,-0.35413116,-0.05316552,-0.010627078,0.0,0.0,0,0.322344
0.047544193,1.0877521,0.047612116,-0.35845116,-0.05369687,-0.010627085,0.0,0.0,0,0.331912
0.04801483,1.0795901,0.047612112,-0.36277112,-0.054228213,-0.010627082,0.0,0.0,0,0.341464
0.048485566,1.071331,0.047612112,-0.36709112,-0.054759555,-0.010627083,0.0,0.0,0,0.351030
0.048956297,1.0629747,0.04761211,-0.37141111,-0.055290904,-0.010627072,0.0,0.0,0,0.360585
0.049426936,1.0545213,0.04761211,-0.37573108,-0.05582225,-0.01062709,0.0,0.0,0,0.370152
0.04989767,1.0459706,0.047612105,-0.38005108,-0.056353595,-0.010627117,0.0,0.0,0,0.379691
0.05036831,1.0373228,0.047612105,-0.38437107,-0.05688494,-0.010627119,0.0,0.0,0,0.389269
0.050839044,1.0285777,0.0476121,-0.38869104,-0.057416305,-0.010627133,0.0,0.0,0,0.398822
0.051309776,1.0197353,0.047612097,-0.39301103,-0.057947654,-0.010627136,0.0,0.0,0,0.408388
0.051780414,1.0107958,0.047612097,-0.39733103,-0.058478992,-0.010627165,0.0,0.0,0,0.417917
0.05225115,1.0017593,0.047612097,-0.40165102,-0.059010353,-0.010627204,0.0,0.0,0,0.427492
0.05272188,0.99262536,0.047612097,-0.40597105,-0.05954172,-0.010627218,0.0,0.0,0,0.437038
0.05319252,0.98339427,0.047612093,-0.4102911,-0.060073063,-0.01062721,0.0,0.0,0,0.446579
0.053663254,0.974066,0.047612093,-0.41461116,-0.06060442,-0.010627228,0.0,0.0,0,0.456134
0.05413399,0.96464056,0.047612093,-0.4189312,-0.06113577,-0.010627227,0.0,0.0,0,0.465671
0.054604627,0.9551179,0.04761209,-0.42325124,-0.061667133,-0.010627254,0.0,0.0,0,0.475220
0.05507536,0.945498,0.047612086,-0.4275713,-0.062198497,-0.010627291,0.0,0.0,0,0.484751
0.055546094,0.93578094,0.047612086,-0.43189135,-0.06272986,-0.010627294,0.0,0.0,0,0.494293
0.056016732,0.9259667,0.047612086,-0.4362114,-0.06326122,-0.010627318,0.0,0.0,0,0.503816
0.056487463,0.9160552,0.047612082,-0.44053143,-0.06379258,-0.010627312,0.0,0.0,0,0.513349
0.0569582,0.9060465,0.04761208,-0.4448515,-0.06432393,-0.010627289,0.0,0.0,0,0.522865
0.057428837,0.89594066,0.04761208,-0.4491715,-0.0648553,-0.010627305,0.0,0.0,0,0.532373
0.057899572,0.88573766,0.04761208,-0.45349154,-0.06538665,-0.010627325,0.0,0.0,0,0.541903
0.058370303,0.87543726,0.047612075,-0.45781153,-0.06591801,-0.0106273405,0.0,0.0,0,0.551388
0.05884094,0.8650399,0.04761207,-0.46213153,-0.066449374,-0.010627374,0.0,0.0,0,0.560875
0.059311677,0.85454535,0.047612067,-0.46645153,-0.066980734,-0.010627373,0.0,0.0,0,0.570370
0.05978241,0.84395355,0.047612064,-0.4707715,-0.067512095,-0.0106273955,0.0,0.0,0,0.579844
0.060253046,0.83326465,0.047612064,-0.4750915,-0.06804345,-0.010627418,0.0,0.0,2,6.449585
0.06096821,0.82396275,0.07121706,-0.41339582,-0.06775846,0.005699861,0.0,0.0,2,5.793906
0.06178522,0.8159098,0.081223704,-0.35788935,-0.06728365,0.009496302,0.0,0.0,2,4.119451
0.062713906,0.80876416,0.0920739,-0.3175527,-0.06650187,0.01563566,0.0,0.0,2,5.562124
0.063743114,0.8029268,0.101952836,-0.2593906,-0.06554379,0.019161563,0.0,0.0,2,3.344345
0.06486454,0.7979261,0.11093551,-0.22220053,-0.064348504,0.02390543,0.0,0.0,2,5.688379
0.06596851,0.7943575,0.10958071,-0.15856855,-0.0635368,0.016234001,0.0,0.0,0,0.080285
0.06707249,0.7906918,0.109580696,-0.1628886,-0.062725104,0.016233983,0.0,0.0,0,0.086779
0.06817646,0.78692865,0.10958068,-0.16720867,-0.06191339,0.016233996,0.0,0.0,0,0.093375
0.06928043,0.7830686,0.10958067,-0.17152874,-0.061101697,0.016234,0.0,0.0,0,0.100142
0.070384406,0.7791112,0.10958067,-0.17584878,-0.06029,0.016233986,0.0,0.0,0,0.107025
0.07148838,0.7750567,0.10958067,-0.18016884,-0.05947829,0.016233994,0.0,0.0,0,0.114054
0.07259245,0.7709048,0.10958066,-0.18448888,-0.058666587,0.016233962,0.0,0.0,0,0.121153
0.07369642,0.76665586,0.10958066,-0.18880895,-0.057854876,0.01623399,0.0,0.0,0,0.128384
0.074800394,0.76230973,0.10958065,-0.19312902,-0.057043176,0.016233994,0.0,0.0,0,0.135685
0.07590437,0.75786656,0.10958065,-0.19744907,-0.056231465,0.016233994,0.0,0.0,0,0.143118
0.077008344,0.75332594,0.109580636,-0.20176914,-0.05541976,0.016233975,0.0,0.0,0,0.150606
0.07811232,0.7486882,0.109580636,-0.2060892,-0.05460806,0.01623395,0.0,0.0,0,0.158185
0.07921629,0.7439532,0.109580636,-0.21040924,-0.05379636,0.016233955,0.0,0.0,0,0.165805
0.08032026,0.73912126,0.109580636,-0.21472931,-0.05298465,0.016233975,0.0,0.0,0,0.173521
0.08142424,0.734192,0.10958062,-0.21904938,-0.05217295,0.016233977,0.0,0.0,0,0.181284
0.08252821,0.7291656,0.10958061,-0.22336943,-0.051361233,0.016233984,0.0,0.0,0,0.189113
0.083632186,0.72404194,0.1095806,-0.2276895,-0.05054954,0.016233997,0.0,0.0,0,0.196982
0.08473625,0.71882117,0.1095806,-0.23200956,-0.04973783,0.016234,0.0,0.0,0,0.204896
0.085840225,0.71350324,0.1095806,-0.2363296,-0.048926126,0.016233984,0.0,0.0,0,0.212867
0.0869442,0.70808804,0.10958059,-0.24064966,-0.048114423,0.016234005,0.0,0.0,0,0.220862
0.088048175,0.7025757,0.10958059,-0.24496968,-0.047302708,0.01623404,0.0,0.0,0,0.228913
0.08915214,0.69696593,0.10958058,-0.24928975,-0.046491012,0.016234027,0.0,0.0,0,0.236942
0.09025612,0.6912593,0.10958058,-0.2536098,-0.04567931,0.01623402,0.0,0.0,0,0.245053
0.09136009,0.6854553,0.10958058,-0.2579299,-0.044867605,0.016234023,0.0,0.0,0,0.253158
0.092464164,0.67955416,0.10958058,-0.26224995,-0.04405589,0.016233977,0.0,0.0,0,0.261297
0.09356813,0.6735558,0.10958058,-0.26657,-0.043244198,0.01623391,0.0,0.0,0,0.269438
0.094672106,0.6674602,0.10958056,-0.27089006,-0.042432483,0.016234038,0.0,0.0,0,0.277588
0.09577608,0.6612675,0.10958056,-0.27521008,-0.041620776,0.01623402,0.0,0.0,0,0.285761
0.096880056,0.65497756,0.10958056,-0.27953014,-0.040809073,0.016234037,0.0,0.0,0,0.293927
0.09798403,0.6485905,0.10958056,-0.2838502,-0.039997358,0.016234042,0.0,0.0,0,0.302105
0.099088,0.6421061,0.109580554,-0.28817025,-0.039185666,0.01623407,0.0,0.0,0,0.310270
0.10019207,0.63552463,0.109580554,-0.2924903,-0.038373947,0.016234066,0.0,0.0,0,0.318429
0.101296045,0.628846,0.10958054,-0.29681033,-0.03756224,0.01623406,0.0,0.0,2,4.514873
0.102572724,0.62334937,0.12619397,-0.2442527,-0.036100116,0.02924208,0.0,0.0,2,2.604860
0.10371389,0.6182987,0.11333591,-0.22445713,-0.03532501,0.015502256,0.0,0.0,2,2.705355
0.10484342,0.6138804,0.112305,-0.19635634,-0.034683194,0.01283622,0.0,0.0,2,4.181813
0.105856515,0.61040753,0.10131116,-0.15434903,-0.034691516,-0.00016648282,0.0,0.0,2,3.995423
0.10678072,0.6079513,0.09296898,-0.10917626,-0.03522932,-0.010756066,0.0,0.0,2,3.234394
0.10765791,0.6065466,0.088606305,-0.062452056,-0.03610953,-0.017604157,0.0,0.0,2,0.754229
0.10860233,0.6060689,0.0951385,-0.021250369,-0.036792427,-0.013657908,0.0,0.0,0,-0.131644
0.109546855,0.60549396,0.0951385,-0.02557041,-0.037475325,-0.013657917,0.0,0.0,0,-0.139916
0.11049137,0.60482186,0.09513849,-0.029890446,-0.03815822,-0.013657922,0.0,0.0,0,-0.147565
0.11143579,0.6040525,0.0951385,-0.034210492,-0.038841117,-0.013657923,0.0,0.0,0,-0.154537
0.11238031,0.60318595,0.095138505,-0.03853053,-0.039524,-0.013657915,0.0,0.0,0,-0.160794
0.11332474,0.60222226,0.0951385,-0.042850573,-0.040206894,-0.013657915,0.0,0.0,0,-0.166322
0.11426926,0.60116136,0.09513849,-0.047170613,-0.040889792,-0.013657933,0.0,0.0,0,-0.171081
0.11521368,0.60000324,0.09513848,-0.051490653,-0.04157269,-0.013657944,0.0,0.0,0,-0.175107
0.1161582,0.59874797,0.09513848,-0.055810697,-0.042255584,-0.013657945,0.0,0.0,0,-0.178371
0.11710262,0.5973954,0.095138475,-0.060130734,-0.042938486,-0.01365796,0.0,0.0,0,-0.180935
0.11804714,0.5959458,0.095138475,-0.06445078,-0.04362139,-0.013657955,0.0,0.0,0,-0.182768
0.11899157,0.5943989,0.09513847,-0.06877083,-0.044304278,-0.013657974,0.0,0.0,0,-0.183939
0.119936086,0.59275484,0.09513846,-0.07309088,-0.04498719,-0.0136579815,0.0,0.0,0,-0.184462
0.12088051,0.5910136,0.09513845,-0.077410914,-0.04567009,-0.01365796,0.0,0.0,0,-0.184374
0.121825024,0.58917516,0.09513845,-0.081730954,-0.046353,-0.01365795,0.0,0.0,0,-0.183692
0.12276945,0.5872395,0.095138445,-0.08605099,-0.047035895,-0.0136579275,0.0,0.0,0,-0.182487
0.12371397,0.5852067,0.095138445,-0.09037103,-0.047718793,-0.013657923,0.0,0.0,0,-0.180761
0.12465839,0.58307666,0.09513844,-0.09469107,-0.04840169,-0.013657955,0.0,0.0,0,-0.178564
0.12560292,0.5808494,0.09513844,-0.0990111,-0.049084593,-0.013657963,0.0,0.0,0,-0.175921
0.12654734,0.57852495,0.09513843,-0.10333113,-0.049767498,-0.013657963,0.0,0.0,0,-0.172878
0.12749186,0.5761034,0.09513843,-0.10765118,-0.0504504,-0.01365797,0.0,0.0,0,-0.169438
0.12843637,0.57358456,0.09513842,-0.11197122,-0.051133297,-0.013657962,0.0,0.0,0,-0.165658
0.12938079,0.57096857,0.095138416,-0.11629126,-0.051816188,-0.013657965,0.0,0.0,0,-0.161545
0.13032532,0.5682553,0.095138416,-0.1206113,-0.05249908,-0.013657929,0.0,0.0,0,-0.157144
0.13126974,0.56544495,0.09513841,-0.12493135,-0.053181972,-0.01365791,0.0,0.0,0,-0.152465
0.13221426,0.5625374,0.0951384,-0.12925139,-0.053864874,-0.013657913,0.0,0.0,0,-0.147519
0.13315868,0.55953246,0.09513839,-0.13357142,-0.05454776,-0.013657933,0.0,0.0,0,-0.142367
0.13410321,0.5564305,0.095138386,-0.13789146,-0.055230677,-0.01365792,0.0,0.0,0,-0.136986
0.13504763,0.5532313,0.095138386,-0.14221148,-0.055913564,-0.013657915,0.0,0.0,0,-0.131427
0.13599214,0.549935,0.095138386,-0.14653152,-0.056596458,-0.013657915,0.0,0.0,0,-0.125676
0.13693666,0.5465414,0.095138386,-0.15085155,-0.057279356,-0.013657933,0.0,0.0,0,-0.119768
0.13788109,0.5430506,0.095138386,-0.15517159,-0.05796225,-0.013657926,0.0,0.0,0,-0.113730
0.13882561,0.5394626,0.09513838,-0.15949164,-0.05864514,-0.013657915,0.0,0.0,0,-0.107539
0.13977003,0.5357774,0.09513837,-0.16381168,-0.05932804,-0.013657947,0.0,0.0,0,-0.101254
0.14071456,0.53199506,0.09513836,-0.16813174,-0.060010944,-0.013657925,0.0,0.0,0,-0.094849
0.14165907,0.5281155,0.095138356,-0.17245176,-0.060693838,-0.013657886,0.0,0.0,0,-0.088344
0.14260349,0.5241387,0.095138356,-0.1767718,-0.061376728,-0.01365786,0.0,0.0,0,-0.081777
0.14354801,0.5200648,0.09513835,-0.18109185,-0.06205962,-0.01365786,0.0,0.0,0,-0.075124
0.14449243,0.5158936,0.09513834,-0.18541189,-0.0627425,-0.013657873,0.0,0.0,0,-0.068431
0.14543696,0.51162535,0.09513835,-0.18973191,-0.06342539,-0.013657886,0.0,0.0,0,-0.061663
0.14638147,0.5072599,0.09513834,-0.19405195,-0.0641083,-0.01365789,0.0,0.0,0,-0.054857
0.1473259,0.5027972,0.095138334,-0.19837202,-0.06479119,-0.013657896,0.0,0.0,0,-0.048028
0.14827041,0.49823737,0.09513833,-0.20269205,-0.0654741,-0.01365789,0.0,0.0,0,-0.041155
0.14921483,0.49358025,0.09513833,-0.2070121,-0.066157,-0.0136579005,0.0,0.0,0,-0.034283
0.15015936,0.48882604,0.09513833,-0.21133213,-0.06683989,-0.01365791,0.0,0.0,0,-0.027397
0.15110388,0.48397458,0.09513832,-0.21565217,-0.0675228,-0.013657926,0.0,0.0,0,-0.020499
0.1520483,0.47902587,0.09513831,-0.21997221,-0.06820569,-0.013657918,0.0,0.0,0,-0.013629
0.15299281,0.47398004,0.095138304,-0.22429225,-0.06888859,-0.01365792,0.0,0.0,0,-0.006766
0.15393734,0.468837,0.095138304,-0.22861227,-0.06957149,-0.01365795,0.0,0.0,0,0.000068
0.15488176,0.46359682,0.0951383,-0.23293231,-0.07025439,-0.01365796,0.0,0.0,0,0.006875
0.15582629,0.45825934,0.0951383,-0.23725237,-0.0709373,-0.013657962,0.0,0.0,0,0.013645
0.1567707,0.4528247,0.0951383,-0.2415724,-0.071620196,-0.013657962,0.0,0.0,0,0.020347
0.15771523,0.44729292,0.09513829,-0.24589245,-0.07230309,-0.0136579545,0.0,0.0,0,0.027007
0.15865974,0.44166386,0.09513828,-0.2502125,-0.07298599,-0.013657944,0.0,0.0,0,0.033592
0.15960416,0.43593764,0.095138274,-0.25453252,-0.07366888,-0.013657953,0.0,0.0,0,0.040102
0.16054869,0.43011418,0.09513827,-0.25885257,-0.07435179,-0.013657955,0.0,0.0,0,0.046514
0.16149321,0.4241936,0.09513827,-0.2631726,-0.075034685,-0.01365794,0.0,0.0,0,0.052847
0.16243763,0.4181758,0.09513827,-0.26749262,-0.07571755,-0.013657466,0.0,0.0,0,0.059049
0.16338214,0.41206077,0.09513826,-0.27181265,-0.07640043,-0.013657412,0.0,0.0,0,0.065138
0.16432667,0.40584856,0.09513825,-0.2761327,-0.077083305,-0.013657406,0.0,0.0,0,0.071095
0.16527109,0.39953923,0.095138244,-0.28045273,-0.077766165,-0.013657413,0.0,0.0,0,0.076907
0.16621561,0.3931326,0.09513824,-0.28477272,-0.07844904,-0.013657443,0.0,0.0,0,0.082546
0.16716012,0.38662878,0.09513824,-0.28909275,-0.079131916,-0.013657443,0.0,0.0,0,0.088014
0.16810456,0.38002783,0.09513824,-0.29341277,-0.079814784,-0.013657441,0.0,0.0,0,0.093293
0.16904907,0.3733296,0.09513823,-0.29773277,-0.08049765,-0.013657434,0.0,0.0,0,0.098340
0.1699936,0.36653423,0.09513822,-0.30205283,-0.081180535,-0.013657443,0.0,0.0,0,0.103176
0.17093801,0.35964167,0.095138215,-0.30637282,-0.08186342,-0.013657438,0.0,0.0,0,0.107748
0.17188254,0.35265192,0.09513821,-0.31069288,-0.08254628,-0.013657423,0.0,0.0,0,0.112043
0.17282705,0.34556502,0.09513821,-0.3150129,-0.08322916,-0.013657418,0.0,0.0,0,0.116050
0.17377158,0.33838093,0.0951382,-0.3193329,-0.083912015,-0.013657393,0.0,0.0,0,0.119719
0.174716,0.33109963,0.09513819,-0.32365292,-0.08459488,-0.013657391,0.0,0.0,0,0.123033
0.17566052,0.3237211,0.095138185,-0.32797295,-0.08527775,-0.013657409,0.0,0.0,0,0.125955
0.17660503,0.31624547,0.09513818,-0.33229294,-0.08596063,-0.013657388,0.0,0.0,0,0.128458
0.17754956,0.30867255,0.09513818,-0.336613,-0.08664348,-0.013657409,0.0,0.0,0,0.130495
0.17849398,0.3010025,0.09513817,-0.340933,-0.08732635,-0.013657408,0.0,0.0,0,0.132017
0.1794385,0.29323527,0.09513816,-0.34525305,-0.088009216,-0.013657412,0.0,0.0,0,0.133002
0.18038301,0.28537074,0.095138155,-0.34957308,-0.0886921,-0.013657406,0.0,0.0,0,0.133376
0.18132743,0.27740908,0.09513815,-0.3538931,-0.08937496,-0.013657403,0.0,0.0,0,0.133080
0.18227196,0.26935023,0.09513815,-0.35821313,-0.09005783,-0.013657382,0.0,0.0,0,0.132075
0.18321648,0.26119417,0.09513814,-0.36253315,-0.09074069,-0.013657397,0.0,0.0,0,0.130266
0.18416099,0.25294098,0.09513813,-0.3668532,-0.09142356,-0.013657419,0.0,0.0,0,0.127610
0.18510552,0.2445905,0.095138125,-0.37117326,-0.09210644,-0.013657438,0.0,0.0,0,0.124015
0.18604994,0.23614283,0.095138125,-0.37549326,-0.09278929,-0.013657428,0.0,0.0,0,0.119360
0.18699446,0.22759803,0.09513812,-0.3798133,-0.093472175,-0.013657431,0.0,0.0,0,0.113605
0.18793897,0.21895595,0.09513812,-0.3841333,-0.09415505,-0.013657416,0.0,0.0,0,0.106596
0.1888835,0.21021675,0.09513812,-0.38845336,-0.09483791,-0.013657388,0.0,0.0,0,0.098260
0.18982792,0.20138033,0.09513811,-0.39277336,-0.09552078,-0.013657403,0.0,0.0,0,0.088444
0.19077244,0.19244672,0.0951381,-0.39709336,-0.09620365,-0.013657401,0.0,0.0,0,0.077027
0.19171695,0.1834159,0.095138095,-0.4014134,-0.09688652,-0.013657404,0.0,0.0,2,3.509923
0.1928132,0.17525691,0.10990298,-0.36263636,-0.09715955,-0.0054605673,0.0,0.0,2,3.285466
0.1941369,0.16802631,0.1318924,-0.3213299,-0.09669248,0.009341707,0.0,0.0,2,2.299253
0.19554129,0.16141985,0.13980836,-0.29357895,-0.09606831,0.012483638,0.0,0.0,2,4.696775
0.1971139,0.15624076,0.15630326,-0.23012097,-0.09512035,0.018959362,0.0,0.0,2,1.482362
0.1988082,0.15168487,0.16811858,-0.20240273,-0.09382296,0.025947789,0.0,0.0,0,-0.060964
0.20050249,0.14703177,0.16811855,-0.20672287,-0.09252559,0.025947759,0.0,0.0,0,-0.067251
0.20219679,0.14228155,0.16811852,-0.21104299,-0.09122821,0.025947759,0.0,0.0,0,-0.074063
0.20389119,0.13743411,0.1681185,-0.21536312,-0.08993083,0.025947785,0.0,0.0,0,-0.081399
0.20558539,0.13248947,0.16811848,-0.21968327,-0.08863344,0.025947744,0.0,0.0,0,-0.089328
0.2072796,0.12744771,0.16811846,-0.22400342,-0.08733605,0.025947755,0.0,0.0,0,-0.097860
0.20897388,0.12230874,0.16811845,-0.22832355,-0.08603866,0.025947753,0.0,0.0,0,-0.107006
0.21066809,0.11707264,0.16811842,-0.2326437,-0.08474125,0.025947709,0.0,0.0,0,-0.116810
0.21236229,0.11173934,0.1681184,-0.23696385,-0.08344386,0.025947714,0.0,0.0,0,-0.127287
0.21405658,0.106308825,0.16811839,-0.241284,-0.082146466,0.0259477,0.0,0.0,0,-0.138438
0.21575078,0.10078111,0.16811837,-0.24560413,-0.080849074,0.025947655,0.0,0.0,0,-0.150309
0.21744499,0.095156275,0.16811837,-0.24992429,-0.079551674,0.02594764,0.0,0.0,0,-0.162903
0.2191393,0.089434296,0.16811836,-0.25424442,-0.07825428,0.02594764,0.0,0.0,0,-0.176207
0.2208335,0.08361505,0.16811834,-0.25856456,-0.0769569,0.025947595,0.0,0.0,0,-0.190260
0.2225277,0.07769867,0.16811833,-0.2628847,-0.07565951,0.025947582,0.0,0.0,0,-0.205057
0.22422199,0.07168516,0.16811833,-0.26720482,-0.07436213,0.02594756,0.0,0.0,2,4.683320
0.22597246,0.06713212,0.17383948,-0.20229715,-0.07316208,0.024000786,0.0,0.0,2,12.481356
0.2279025,0.06388043,0.19126835,-0.14443289,-0.07144918,0.034258027,1.0,0.0,2,5.907892
0.22961883,0.061837804,0.16311644,-0.09086635,-0.061214067,0.2070282,1.0,0.0,2,5.623520
0.23120013,0.060819063,0.13863541,-0.04464727,-0.041783612,0.38882792,1.0,0.0,0,4.404590
0.23271695,0.060135063,0.12409637,-0.029884893,-0.014445796,0.54687214,1.0,0.0,0,0.465087
0.23420104,0.059585463,0.11650622,-0.02443104,0.017097706,0.6309388,1.0,0.0,0,-3.326409
0.23568115,0.058968123,0.115831316,-0.028125405,0.048920885,0.6365208,1.0,0.0,0,-3.277931
0.23714295,0.058234487,0.115175344,-0.03390168,0.079593726,0.61345667,1.0,0.0,0,-13.321965
0.23860407,0.057416163,0.11518234,-0.0383013,0.11026454,0.613417,0.0,0.0,0,-3.334961
0.24006443,0.056513082,0.115193024,-0.04270074,0.14093341,0.6133776,0.0,0.0,0,-3.347471
0.24152336,0.05552517,0.11520735,-0.047099914,0.1716003,0.6133385,0.0,0.0,0,-3.359561
0.24298096,0.054452285,0.115225315,-0.051498756,0.20226523,0.61329925,0.0,0.0,0,-3.371171
0.24443683,0.05329443,0.11524691,-0.055897184,0.23292817,0.61325943,0.0,0.0,0,-3.382326
0.2458909,0.05205153,0.11527208,-0.06029513,0.2635891,0.6132196,0.0,0.0,0,-3.392989
0.24734259,0.050723515,0.115300834,-0.06469253,0.29424807,0.61317986,0.0,0.0,0,-3.403224
0.24879198,0.04931017,0.115333125,-0.0690893,0.32490504,0.61314017,0.0,0.0,0,-3.412997
0.2502386,0.047811422,0.11536894,-0.073485374,0.35556003,0.6131004,0.0,0.0,0,-3.422339
0.2516822,0.046227347,0.115408204,-0.07788067,0.38621303,0.61306065,0.0,0.0,0,-3.431295
0.25312272,0.044557437,0.11545092,-0.08227514,0.41686404,0.61302096,0.0,0.0,0,10.212222
0.25436848,0.043373477,0.11318956,-0.05602739,0.4291872,0.24646354,0.0,1.0,3,1.417879
0.25544757,0.042667877,0.11548742,-0.029067662,0.42096952,-0.16435482,0.0,1.0,3,2.063739
0.25642976,0.04226054,0.118894674,-0.0120977,0.39871064,-0.44517165,0.0,1.0,3,2.005036
0.25742608,0.04188417,0.12610543,-0.009566457,0.3704787,-0.56467265,0.0,1.0,3,1.434847
0.258543,0.041441496,0.13951507,-0.012750853,0.34116936,-0.586187,0.0,1.0,3,-7.892557
0.25972492,0.040959846,0.14816102,-0.01462183,0.3099191,-0.62500584,0.0,0.0,3,12.926086
0.26090592,0.041148316,0.13261423,0.011394711,0.29494017,-0.2995338,1.0,0.0,3,0.624764
0.2621045,0.04196192,0.11785208,0.03574839,0.29702938,0.041807584,1.0,0.0,3,-1.011322
0.26337796,0.04270714,0.12758377,0.03316883,0.2967966,-0.004639455,1.0,0.0,3,-0.956881
0.26473197,0.0434744,0.13581556,0.034178194,0.29638028,-0.0083130915,1.0,0.0,3,-0.931848
0.26615724,0.044327553,0.14128815,0.037660435,0.2976822,0.026059821,1.0,0.0,0,-0.157972
0.26758116,0.045079004,0.14127162,0.033164468,0.29884243,0.023204582,1.0,0.0,0,-0.174745
0.26900512,0.045733247,0.14127168,0.028844362,0.30000266,0.023204576,1.0,0.0,0,-0.185265
0.27042836,0.04629844,0.14099129,0.0248461,0.30137977,0.027542021,1.0,0.0,0,-0.214123
0.27184972,0.04678782,0.14026575,0.021358224,0.3033186,0.038777,1.0,0.0,0,-0.276822
0.27326927,0.047201168,0.1395437,0.017865758,0.30581748,0.049978178,1.0,0.0,0,-0.339663
0.2746871,0.047538552,0.13882655,0.014367262,0.30887425,0.061135072,1.0,0.0,0,-0.402535
0.27610302,0.04779969,0.13811538,0.010861451,0.3124861,0.07223738,1.0,0.0,0,-0.465451
0.27751732,0.047984585,0.13741113,0.007347065,0.31664988,0.083275184,1.0,0.0,0,-0.528319
0.2789298,0.04809309,0.13671485,0.0038229078,0.32136184,0.09423895,1.0,0.0,0,-0.591121
0.28034058,0.04812499,0.13602749,0.00028787524,0.3266178,0.10511994,1.0,0.0,1,12.740916
0.28138494,0.048668727,0.104440846,0.024166051,0.32661468,-6.100036e-05,1.0,1.0,1,1.029198
0.28231543,0.049162682,0.09304977,0.021952596,0.3266174,5.3175143e-05,1.0,1.0,1,1.188696
0.2831193,0.049585473,0.08038578,0.018790063,0.32661745,1.4517279e-06,1.0,1.0,1,1.262619
0.2837903,0.049938306,0.06709651,0.015680945,0.32661748,5.0271626e-07,1.0,1.0,1,1.155713
0.28434008,0.05022727,0.054975636,0.012842941,0.32661742,-9.249305e-07,1.0,1.0,1,1.053632
0.28477973,0.050458442,0.0439616,0.01027451,0.32661745,4.2354242e-07,1.0,1.0,1,1.027739
0.28511286,0.050633606,0.03331267,0.0077853366,0.32661745,2.2624036e-07,1.0,1.0,1,1.121022
0.28533164,0.05074862,0.021875104,0.0051124305,0.32661745,1.7892161e-07,1.0,1.0,1,1.139887
0.28543538,0.050803196,0.010374287,0.0024252033,0.32661745,2.4338482e-07,1.0,1.0,1,1.020037
0.28543395,0.05080248,-0.00014853477,-3.531653e-05,0.32661992,4.8016027e-05,1.0,1.0,1,-1.127695
0.2853244,0.050745044,-0.010953828,-0.0025542292,0.3266198,-2.4184087e-06,1.0,1.0,1,-0.923475
0.28512582,0.050640546,-0.019860249,-0.004644589,0.3266199,1.6395674e-06,1.0,1.0,1,-1.117318
0.28481808,0.050478753,-0.030771393,-0.007191378,0.32661992,3.4159797e-07,1.0,1.0,1,-1.041932
0.28440753,0.05026296,-0.041056126,-0.00959217,0.3266199,-7.750459e-07,1.0,1.0,1,-1.216564
0.28387594,0.04998594,-0.053173386,-0.012313979,0.3266383,0.0003683465,1.0,1.0,1,-0.925519
0.28325072,0.04965714,-0.06252351,-0.014612809,0.32663837,1.0914815e-06,1.0,1.0,1,-0.961265
0.28252727,0.049276695,-0.07234975,-0.016908256,0.3266384,7.660068e-07,1.0,1.0,1,-0.958932
0.28170472,0.04884425,-0.082257904,-0.019218339,0.3266383,-1.5614936e-06,1.0,1.0,1,-0.952556
0.2807827,0.04835945,-0.09220533,-0.021548184,0.32663834,8.137278e-07,1.0,1.0,1,-1.105463
0.2797451,0.047813855,-0.10376395,-0.02424719,0.32663834,-6.179007e-08,1.0,1.0,1,-0.875908
0.27861327,0.047218762,-0.113184825,-0.02644881,0.32663834,9.258438e-09,1.0,1.0,1,-0.741087
0.27739954,0.04658054,-0.12137735,-0.02836576,0.3266384,1.145109e-06,1.0,1.0,1,-1.104241
0.27606726,0.04588009,-0.13323125,-0.031130115,0.32663834,-1.3601162e-06,1.0,1.0,1,-0.844546
0.27464074,0.04513007,-0.14265236,-0.03333285,0.3266383,-8.2337317e-07,1.0,1.0,1,-1.126095
0.2730914,0.044317182,-0.15494648,-0.036131874,0.32665083,0.00025016005,1.0,1.0,1,-0.955552
0.2714347,0.043446146,-0.16566998,-0.03871399,0.32665083,2.5619755e-07,1.0,1.0,1,-0.962844
0.26966876,0.042517673,-0.17659456,-0.041263923,0.32665077,-1.0303359e-06,1.0,1.0,1,-1.022126
0.2677868,0.04153062,-0.18822087,-0.043871753,0.32666916,0.0003678316,1.0,1.0,1,-0.995064
0.26579008,0.040480766,-0.19967028,-0.046660524,0.32666922,9.0017454e-07,1.0,1.0,1,-0.758357
0.26370078,0.039382275,-0.20893478,-0.048822287,0.3266692,-4.8223757e-07,1.0,1.0,1,-1.024898
0.2614916,0.0382207,-0.22091499,-0.051627025,0.32666928,1.8370076e-06,1.0,1.0,1,-0.762807
0.25918713,0.03700913,-0.23044205,-0.05384643,0.32666922,-1.2249545e-06,1.0,1.0,1,1.001702
0.25680953,0.036468897,-0.23279743,-0.022921067,0.3215086,-0.10322696,1.0,1.0,1,-0.024571
0.2543412,0.03596028,-0.24124067,-0.021371134,0.3157072,-0.11601517,1.0,1.0,1,0.097421
0.25180236,0.035428487,-0.24829185,-0.022428673,0.3099039,-0.116065964,1.0,1.0,1,-0.031775
0.24917813,0.034889325,-0.2568029,-0.022777257,0.3040871,-0.11633601,1.0,1.0,1,0.052352
0.24647494,0.034338366,-0.26461717,-0.023304204,0.29818666,-0.11800818,1.0,1.0,1,0.050965
0.24369077,0.033774745,-0.2726104,-0.023873035,0.2921999,-0.11973528,1.0,1.0,1,0.028247
0.24082117,0.033194598,-0.28103024,-0.024607839,0.2860876,-0.122246385,1.0,1.0,0,0.975532
0.23794994,0.03256088,-0.28064603,-0.026907805,0.27943558,-0.13303903,1.0,1.0,0,0.966481
0.23508015,0.03191987,-0.28050944,-0.027269667,0.27280203,-0.13267171,1.0,1.0,0,0.967806
0.23221168,0.03127457,-0.28036794,-0.027486516,0.2661728,-0.13258442,1.0,1.0,0,0.965742
0.22934456,0.030624542,-0.28023738,-0.027728116,0.25954974,-0.13246149,1.0,1.0,0,0.964217
0.22647858,0.029969582,-0.2801148,-0.02797297,0.2529326,-0.13234277,1.0,1.0,0,0.962767
0.22361365,0.029309832,-0.2800004,-0.028217664,0.24632089,-0.13223425,1.0,1.0,0,0.961364
0.22074977,0.028645216,-0.2798941,-0.028462518,0.23971412,-0.13213554,1.0,1.0,0,0.960027
0.21788673,0.027975807,-0.27979594,-0.028707663,0.23311177,-0.13204664,1.0,1.0,0,0.958718
0.21502466,0.027301535,-0.2797059,-0.028953174,0.2265134,-0.13196744,1.0,1.0,0,0.957490
0.21216325,0.026622329,-0.27962396,-0.02919905,0.21991852,-0.13189772,1.0,1.0,0,0.956305
0.20930251,0.025938258,-0.2795501,-0.029445387,0.21332663,-0.13183764,1.0,1.0,0,0.955175
0.20644236,0.025249396,-0.27948427,-0.029692234,0.20673728,-0.1317871,1.0,1.0,0,0.954088
0.20358276,0.024555527,-0.27942652,-0.029939685,0.20014998,-0.13174614,1.0,1.0,0,0.953069
0.20072356,0.023856722,-0.27937672,-0.030187761,0.19356427,-0.13171469,1.0,1.0,0,0.952093
0.19786473,0.023152981,-0.27933496,-0.030436506,0.1869796,-0.13169284,1.0,1.0,0,0.951174
0.19500609,0.022444306,-0.27930117,-0.030686054,0.18039559,-0.13168038,1.0,1.0,0,0.950300
0.19214773,0.021730624,-0.27927527,-0.030936414,0.1738117,-0.13167734,1.0,1.0,0,0.949477
0.18928948,0.021011863,-0.27925733,-0.031187672,0.16722752,-0.13168359,1.0,1.0,0,0.948721
0.18643112,0.020288168,-0.27924722,-0.031439833,0.16064255,-0.13169938,1.0,1.0,0,0.947995
0.18357277,0.019559393,-0.27924502,-0.031693034,0.15405631,-0.13172464,1.0,1.0,0,0.947320
0.18071432,0.01882547,-0.27925065,-0.03194721,0.14746836,-0.13175932,1.0,1.0,0,0.946700
0.17785558,0.018086538,-0.27926415,-0.032202553,0.14087819,-0.13180354,1.0,1.0,0,0.946124
0.17499657,0.017342458,-0.27928543,-0.032459073,0.13428535,-0.13185704,1.0,1.0,0,0.945594
0.17213717,0.016593227,-0.27931455,-0.03271683,0.12768935,-0.13192007,1.0,1.0,0,0.945106
0.16927738,0.015838847,-0.2793514,-0.03297589,0.121089704,-0.13199279,1.0,1.0,0,0.944681
0.16641693,0.015079246,-0.2793961,-0.03323633,0.11448596,-0.13207489,1.0,1.0,0,0.944290
0.1635559,0.014314351,-0.27944845,-0.033498183,0.10787763,-0.13216648,1.0,1.0,0,0.943923
0.16069421,0.013544307,-0.27950865,-0.033761524,0.10126424,-0.13226771,1.0,1.0,0,0.943631
0.15783167,0.012768826,-0.27957657,-0.0340264,0.09464531,-0.1323786,1.0,1.0,0,0.943359
0.15496826,0.011988053,-0.27965224,-0.034292877,0.08802037,-0.13249896,1.0,1.0,0,0.943126
0.15210399,0.011201915,-0.27973562,-0.03456099,0.081388906,-0.13262926,1.0,1.0,0,0.942942
0.14923868,0.010410342,-0.27982676,-0.034830872,0.07475044,-0.1327693,1.0,1.0,0,0.942784
0.14637232,0.009613332,-0.27992564,-0.035102535,0.068104476,-0.13291906,1.0,1.0,0,0.942675
0.14350471,0.008810852,-0.28003222,-0.03537606,0.061450552,-0.13307887,1.0,1.0,0,0.942592
0.14063588,0.008002792,-0.28014654,-0.035651516,0.054788124,-0.13324858,1.0,1.0,0,0.942547
0.13776569,0.0071892235,-0.28026855,-0.035929,0.0481167,-0.13342832,1.0,1.0,0,0.942533
0.13489409,0.0063700057,-0.28039825,-0.03620853,0.0414358,-0.13361819,1.0,1.0,0,0.942541
0.13202104,0.0055450653,-0.28053564,-0.036490202,0.03474489,-0.13381828,1.0,1.0,0,0.942587
0.12914638,0.0047144745,-0.28068072,-0.036774065,0.028043473,-0.13402851,1.0,1.0,0,0.942663
0.12627001,0.0038781262,-0.2808334,-0.037060227,0.02133101,-0.13424926,1.0,1.0,0,0.942737
0.12339201,0.0030359125,-0.28099376,-0.03734873,0.014606987,-0.1344805,1.0,1.0,0,0.942854
0.120512106,0.0021879054,-0.28116173,-0.03763963,0.007870882,-0.13472205,1.0,1.0,0,0.942957
0.117630385,0.0013339258,-0.28133738,-0.037933033,0.0011221543,-0.13497446,1.0,1.0,3,0.631983
0.114831544,0.0004988646,-0.2732391,-0.0371246,-0.005441172,-0.13126649,1.0,1.0,3,0.657358
0.112135604,-0.00024196148,-0.26373714,-0.032959264,-0.0112253595,-0.1156837,1.0,1.0,3,1.952925
0.109650806,-0.00024746894,-0.24844818,-0.00025480005,-0.011221195,0.00011978923,1.0,1.0,3,-8.568829
0.10728846,-0.00024217606,-0.23619184,0.00022730797,-0.01122819,-0.00010668904,0.0,1.0,3,1.262995
0.105033115,-0.00024196148,-0.22551593,4.612052e-06,-0.011229593,-2.1458918e-06,0.0,1.0,0,0.316108
0.10278692,-0.00024174691,-0.22459991,2.0128577e-06,-0.011230722,-9.584224e-07,0.0,1.0,0,0.315195
0.10054989,-0.00024167537,-0.2236841,-6.81518e-09,-0.01123161,5.301771e-10,0.0,1.0,3,1.195295
0.09841442,-0.00017948389,-0.21417005,0.0027622583,-0.010610487,0.012434544,0.0,1.0,3,1.405183
0.096395776,-0.00017583609,-0.20182605,0.0001604541,-0.0106390575,-0.0005590842,0.0,1.0,3,1.041690
0.094465256,-0.00017605066,-0.1930395,-1.12609705e-05,-0.010639287,5.2815303e-06,0.0,1.0,3,1.149545
0.092634395,-0.00017605066,-0.18307455,-2.285774e-06,-0.010639657,1.0653166e-06,0.0,1.0,0,0.273863
0.09081268,-0.00017597913,-0.18215723,1.8729073e-06,-0.010640051,-8.6731745e-07,0.0,1.0,0,0.272841
0.08900032,-0.00017597913,-0.18124089,3.9554788e-08,-0.010640337,-2.4097972e-08,0.0,1.0,3,1.030998
0.08727674,-0.00017597913,-0.17235419,1.2583473e-06,-0.010640623,-6.10156e-07,0.0,1.0,3,1.363454
0.08567705,-9.147167e-05,-0.16076179,0.003754321,-0.009854489,0.015724313,0.0,1.0,3,1.275011
0.08418465,-7.516384e-05,-0.1491184,0.0007257424,-0.009982251,-0.0025516571,0.0,1.0,3,-8.788582
0.08280382,-7.530689e-05,-0.13808678,-5.338418e-06,-0.009982276,2.5206712e-06,0.0,0.0,0,0.228796
0.08143215,-7.544994e-05,-0.13717051,-5.8953246e-06,-0.009982262,2.7748756e-06,0.0,0.0,3,1.175079
0.080168344,-7.544994e-05,-0.12638341,3.4239432e-07,-0.009982376,-1.6679988e-07,0.0,0.0,3,1.029155
0.07899876,-7.544994e-05,-0.1169614,-1.3028271e-06,-0.009982425,6.1641913e-07,0.0,0.0,3,1.160747
0.0779376,-7.544994e-05,-0.10611498,1.1623174e-06,-0.009982519,-5.5877024e-07,0.0,0.0,3,1.031147
0.07697296,-7.544994e-05,-0.09646806,1.3052664e-06,-0.009982613,-6.1347686e-07,0.0,0.0,0,0.187127
0.07601748,-7.544994e-05,-0.09555227,-1.4939139e-06,-0.009982614,7.026266e-07,0.0,0.0,0,0.186288
0.07507114,-7.544994e-05,-0.09463569,-2.9132766e-08,-0.00998265,1.6802703e-08,0.0,0.0,3,1.252377
0.07424478,-7.544994e-05,-0.08263825,3.0883032e-07,-0.009982686,-1.446083e-07,0.0,0.0,3,1.324062
0.07354679,-7.552147e-05,-0.069795646,-1.9930692e-06,-0.009982657,9.38594e-07,0.0,0.0,3,1.095181
0.072955415,-7.552147e-05,-0.059135206,-9.652193e-07,-0.00998266,4.5455477e-07,0.0,0.0,0,0.149929
0.0723732,-7.544994e-05,-0.058218043,2.635002e-06,-0.009982744,-1.2387904e-06,0.0,0.0,0,0.148906
0.071800135,-7.544994e-05,-0.05730204,4.1449255e-08,-0.00998275,-2.056937e-08,0.0,0.0,0,0.148006
0.07123633,-7.544994e-05,-0.056385778,-1.8635758e-08,-0.009982761,2.2311506e-09,0.0,0.0,0,0.147106
0.07068167,-7.544994e-05,-0.055469375,-6.4980106e-09,-0.009982763,6.060382e-10,0.0,0.0,0,0.146191
0.07013617,-7.544994e-05,-0.054552965,1.9007083e-09,-0.009982766,6.1874226e-09,0.0,0.0,0,0.145275
0.06959982,-7.544994e-05,-0.05363656,6.546697e-09,-0.009982768,6.800222e-10,0.0,0.0,0,0.144360
0.06907263,-7.544994e-05,-0.052720148,6.641771e-09,-0.00998277,-3.048082e-10,0.0,0.0,0,0.143445
0.068554595,-7.544994e-05,-0.051803738,6.374726e-09,-0.009982765,-1.13298204e-10,0.0,0.0,0,0.142529
0.06804571,-7.544994e-05,-0.050887328,3.9820787e-09,-0.009982767,3.2491374e-09,0.0,0.0,0,0.141613
0.06754599,-7.544994e-05,-0.049970917,1.1199371e-09,-0.009982768,5.610434e-09,0.0,0.0,0,0.140698
0.06705542,-7.544994e-05,-0.04905451,-1.0143909e-09,-0.009982768,6.143509e-09,0.0,0.0,0,0.139782
0.066574,-7.544994e-05,-0.0481381,-1.7790066e-09,-0.009982769,5.189375e-09,0.0,0.0,0,0.138866
0.066101745,-7.544994e-05,-0.04722169,-2.9953415e-09,-0.009982778,3.017861e-09,0.0,0.0,0,0.137942
0.065638736,-7.544994e-05,-0.04630528,-3.7324255e-09,-0.009982771,-4.471198e-10,0.0,0.0,0,0.137025
0.06518488,-7.544994e-05,-0.04538887,-3.695622e-09,-0.00998278,2.4456157e-09,0.0,0.0,0,0.136110
0.06474018,-7.544994e-05,-0.044472463,-3.0220049e-09,-0.009982788,6.906101e-10,0.0,0.0,0,0.135196
0.064304635,-7.544994e-05,-0.043556053,-2.5262765e-09,-0.0099827815,-5.0647697e-10,0.0,0.0,0,0.134280
0.06387825,-7.544994e-05,-0.042639643,-2.0438167e-09,-0.009982775,-5.064851e-10,0.0,0.0,0,0.133363
0.06346102,-7.544994e-05,-0.041723233,-1.5613515e-09,-0.009982784,-2.775113e-10,0.0,0.0,0,0.132449
0.06305294,-7.544994e-05,-0.040806822,-1.0788813e-09,-0.009982778,1.2207803e-10,0.0,0.0,0,0.131534
0.06265402,-7.544994e-05,-0.039890416,-2.0888487e-10,-0.009982772,6.723038e-09,0.0,0.0,0,0.130618
0.062264252,-7.544994e-05,-0.038974006,4.6833915e-10,-0.009982767,6.7148727e-09,0.0,0.0,0,0.129703
0.06188364,-7.544994e-05,-0.03805759,1.1066592e-09,-0.009982761,6.4239316e-09,0.0,0.0,0,0.128787
0.061512183,-7.544994e-05,-0.03714118,1.3678352e-09,-0.0099827545,6.318598e-09,0.0,0.0,0,0.127862
0.061149977,-7.544994e-05,-0.036224768,1.9166242e-09,-0.009982749,3.1498282e-09,0.0,0.0,0,0.126947
0.060796928,-7.544994e-05,-0.035308354,2.4123312e-09,-0.009982743,1.2573538e-09,0.0,0.0,0,0.126031
0.060453035,-7.544994e-05,-0.034391943,2.8947789e-09,-0.009982737,7.289601e-10,0.0,0.0,0,0.125116
0.060118295,-7.544994e-05,-0.03347553,2.5760285e-09,-0.009982731,4.7981876e-09,0.0,0.0,0,0.124200
0.05979271,-7.544994e-05,-0.03255912,1.6953418e-09,-0.009982725,3.0459706e-09,0.0,0.0,0,0.123285
0.05947628,-7.544994e-05,-0.031642705,8.443325e-10,-0.009982719,1.0255452e-09,0.0,0.0,0,0.122369
0.059169006,-7.544994e-05,-0.030726293,3.6185616e-10,-0.0099827135,4.1374829e-10,0.0,0.0,0,0.121454
0.05887089,-7.544994e-05,-0.029809881,2.802368e-10,-0.009982707,7.1792217e-09,0.0,0.0,0,0.120537
0.058581926,-7.544994e-05,-0.028893467,5.557076e-10,-0.009982709,6.802053e-09,0.0,0.0,0,0.119622
0.058302116,-7.544994e-05,-0.027977055,9.241188e-10,-0.00998271,3.7229344e-09,0.0,0.0,0,0.118706
0.058031462,-7.544994e-05,-0.027060643,1.2060607e-09,-0.009982712,-3.255899e-09,0.0,0.0,0,0.117781
0.057770062,-7.544994e-05,-0.02614423,1.2062181e-09,-0.0099827135,2.5142566e-09,0.0,0.0,0,0.116866
0.057517815,-7.544994e-05,-0.025227819,1.2060636e-09,-0.009982708,-3.194322e-09,0.0,0.0,0,0.115951
0.05727472,-7.544994e-05,-0.024311407,1.0052917e-09,-0.009982702,-4.105277e-09,0.0,0.0,0,0.115035
0.05704079,-7.544994e-05,-0.023394996,3.6407585e-10,-0.009982703,2.09273e-08,0.0,0.0,0,0.114120
0.056816004,-7.544994e-05,-0.022478584,-9.9437965e-11,-0.009982697,2.3959931e-08,0.0,0.0,0,0.113204
0.05660038,-7.544994e-05,-0.021562174,8.4504036e-11,-0.009982698,2.3994204e-08,0.0,0.0,0,0.112289
0.05639391,-7.544994e-05,-0.020645764,2.2803529e-10,-0.009982692,3.8983416e-09,0.0,0.0,0,0.111373
0.056196593,-7.544994e-05,-0.019729352,2.0717467e-10,-0.009982685,2.2836597e-08,0.0,0.0,0,0.110457
0.056008436,-7.544994e-05,-0.018812941,2.6903255e-10,-0.009982686,2.3068448e-08,0.0,0.0,0,0.109542
0.055829428,-7.544994e-05,-0.01789653,4.8858106e-10,-0.009982679,-4.1113744e-09,0.0,0.0,0,0.108617
0.055659674,-7.544994e-05,-0.016980119,8.824743e-11,-0.009982674,-2.3132463e-08,0.0,0.0,0,0.107702
0.055499077,-7.544994e-05,-0.016063709,-6.828798e-10,-0.009982668,-3.3666125e-09,0.0,0.0,0,0.106786
0.055347633,-7.544994e-05,-0.015147297,-4.0338622e-12,-0.00998266,2.0767226e-08,0.0,0.0,0,0.105870
0.055205345,-7.544994e-05,-0.0142308865,4.5783657e-10,-0.009982655,-1.967351e-08,0.0,0.0,0,0.104955
0.05507221,-7.544994e-05,-0.013314475,3.950426e-10,-0.009982649,-1.9047548e-09,0.0,0.0,0,0.104039
0.054948233,-7.544994e-05,-0.012398065,4.759793e-10,-0.009982643,1.4071908e-08,0.0,0.0,0,0.103123
0.054833412,-7.544994e-05,-0.011481655,7.9034707e-10,-0.009982644,1.6814516e-08,0.0,0.0,0,0.102208
0.054727744,-7.544994e-05,-0.010565245,1.2128454e-09,-0.009982638,1.7162665e-09,0.0,0.0,0,0.101293
0.054631233,-7.544994e-05,-0.009648834,8.8505364e-10,-0.009982633,-1.3391966e-08,0.0,0.0,0,0.100377
0.054543875,-7.544994e-05,-0.008732424,1.0722093e-09,-0.009982634,-9.751835e-10,0.0,0.0,0,0.099461
0.054465674,-7.544994e-05,-0.007816014,6.4380423e-10,-0.009982637,-1.4159063e-08,0.0,0.0,0,0.098537
0.054396726,-7.544994e-05,-0.0068996036,3.4849731e-10,-0.009982632,-1.7647264e-09,0.0,0.0,0,0.097621
0.054336928,-7.544994e-05,-0.0059831934,5.6244026e-10,-0.009982632,2.1565725e-08,0.0,0.0,0,0.096705
0.05428629,-7.544994e-05,-0.0050667827,5.9625155e-10,-0.009982633,-1.4215918e-08,0.0,0.0,0,0.095790
0.054244805,-7.544994e-05,-0.004150372,2.0879401e-10,-0.009982629,-2.1783727e-08,0.0,0.0,0,0.094873
0.054212473,-7.544994e-05,-0.0032339613,-5.7567673e-10,-0.009982639,-1.5341744e-08,0.0,0.0,0,0.093959
0.054189302,-7.544994e-05,-0.002317551,-8.7883e-10,-0.009982634,-2.1876161e-08,0.0,0.0,0,0.093043
0.05417528,-7.544994e-05,-0.0014011408,-1.1537976e-09,-0.009982635,1.8587542e-08,0.0,0.0,0,0.092128
0.05417042,-7.544994e-05,-0.00048473018,-3.4935393e-10,-0.009982629,2.194231e-08,0.0,0.0,0,0.033934
0.054171752,-7.544994e-05,0.00014185278,4.807377e-08,-0.00998483,-4.3173735e-05,0.0,0.0,0,-0.011692
0.054174233,-7.544994e-05,0.0002523539,8.4552354e-08,-0.009988771,-7.6804616e-05,0.0,0.0,0,0.013032
0.054175377,-7.544994e-05,0.00011903705,3.8735198e-08,-0.009990623,-3.622876e-05,0.0,0.0,0,0.011442
0.054175377,-7.544994e-05,-4.684341e-06,-1.3931185e-09,-0.009990558,1.4286022e-06,0.0,0.0,0,-0.003641
0.054174997,-7.544994e-05,-4.2123917e-05,-1.4106589e-08,-0.009989914,1.2819828e-05,0.0,0.0,0,0.001672
0.05417471,-7.544994e-05,-2.6101208e-05,-7.725047e-09,-0.009989503,7.940875e-06,0.0,0.0,0,0.002285
0.05417471,-7.544994e-05,-3.3064593e-06,-9.611777e-10,-0.009989446,1.0031406e-06,0.0,0.0,0,-0.000329
0.054174803,-7.544994e-05,6.393183e-06,2.0795066e-09,-0.009989558,-1.9465083e-06,0.0,0.0,0,0.000092
0.0541749,-7.544994e-05,5.279192e-06,1.5218992e-09,-0.0099896565,-1.6063102e-06,0.0,0.0,0,0.000389
0.0541749,-7.544994e-05,1.3671279e-06,3.785125e-10,-0.009989676,-4.2075766e-07,0.0,0.0,0,0.000054
0.0541749,-7.544994e-05,-8.361447e-07,-7.430714e-11,-0.009989667,2.5377574e-07,0.0,0.0,0,-0.000014
0.0541749,-7.544994e-05,-9.978411e-07,-9.9670674e-11,-0.009989648,3.1322358e-07,0.0,0.0,0,0.000063
0.0541749,-7.544994e-05,-3.8271315e-07,-2.2433723e-10,-0.009989637,1.2108917e-07,0.0,0.0,0,0.000031
0.0541749,-7.544994e-05,7.7511935e-08,-6.007671e-11,-0.009989636,-1.3748175e-08,0.0,0.0,0,-0.000010
0.0541749,-7.544994e-05,1.7821046e-07,2.366969e-10,-0.009989637,-5.101519e-08,0.0,0.0,0,0.000009
0.0541749,-7.544994e-05,9.2853824e-08,2.0082346e-10,-0.009989636,-2.4728939e-08,0.0,0.0,0,0.000009
0.0541749,-7.544994e-05,6.6355184e-09,3.095227e-10,-0.009989634,-1.6457143e-08,0.0,0.0,0,-0.000002
0.0541749,-7.544994e-05,-2.7562644e-08,9.315333e-11,-0.009989631,2.247017e-08,0.0,0.0,0,0.000001
0.0541749,-7.544994e-05,-2.3025677e-08,-1.10757306e-10,-0.009989627,2.2237263e-08,0.0,0.0,0,0.000001
0.0541749,-7.544994e-05,-1.1259862e-08,1.4511928e-10,-0.009989624,2.2828678e-08,0.0,0.0,0,0.000001
0.0541749,-7.544994e-05,-4.2617612e-10,7.1042744e-10,-0.009989621,2.9740936e-09,0.0,0.0,0,-0.000001
0.0541749,-7.544994e-05,8.5235765e-09,8.0521695e-10,-0.00998962,-2.1672932e-08,0.0,0.0,0,100
0.006936741,1.4060649,0.7025975,-0.21580842,-0.008031128,-0.15914872,0.0,0.0,0,-0.305953
0.013873672,1.4011362,0.70164824,-0.21911784,-0.015895398,-0.15729986,0.0,0.0,0,-0.424840
0.020810891,1.3961108,0.70167243,-0.22345594,-0.023754887,-0.15720446,0.0,0.0,0,-0.420526
0.027748298,1.3909888,0.7016954,-0.2277854,-0.031613346,-0.15718368,0.0,0.0,0,-0.416512
0.03468599,1.3857706,0.70171833,-0.23211165,-0.039470535,-0.15715864,0.0,0.0,0,-0.412660
0.041623972,1.380456,0.70174146,-0.23643751,-0.047326464,-0.15713343,0.0,0.0,0,-0.408769
0.04856224,1.3750448,0.7017644,-0.24076366,-0.05518114,-0.15710828,0.0,0.0,0,-0.404978
0.055500794,1.3695375,0.70178723,-0.24509004,-0.06303457,-0.15708314,0.0,0.0,0,-0.401177
0.06243963,1.3639336,0.70181,-0.24941662,-0.070886746,-0.15705818,0.0,0.0,0,-0.397419
0.06937866,1.3582333,0.70183253,-0.2537434,-0.07873766,-0.1570332,0.0,0.0,0,-0.393698
0.07631807,1.3524364,0.70185494,-0.2580704,-0.08658736,-0.15700841,0.0,0.0,0,-0.390019
0.08325777,1.3465431,0.70187724,-0.26239765,-0.09443582,-0.15698363,0.0,0.0,0,-0.386409
0.09019776,1.3405533,0.7018994,-0.2667251,-0.10228304,-0.15695897,0.0,0.0,0,-0.382813
0.097138025,1.334467,0.7019214,-0.27105272,-0.110129036,-0.15693444,0.0,0.0,0,-0.379287
0.104078576,1.3282844,0.7019433,-0.27538055,-0.11797383,-0.15690996,0.0,0.0,0,-0.375808
0.11101942,1.3220053,0.701965,-0.27970856,-0.12581737,-0.15688553,0.0,0.0,0,-0.372385
0.11796065,1.3156298,0.70198643,-0.2840368,-0.13365974,-0.15686125,0.0,0.0,0,-0.369005
0.12490215,1.3091577,0.70200783,-0.28836522,-0.14150089,-0.15683699,0.0,0.0,0,-0.365697
0.13184395,1.3025893,0.70202905,-0.29269382,-0.14934082,-0.15681283,0.0,0.0,0,-0.362435
0.13878603,1.2959242,0.7020501,-0.29702267,-0.15717956,-0.15678878,0.0,0.0,0,-0.359252
0.1457284,1.2891628,0.70207095,-0.30135167,-0.16501708,-0.1567649,0.0,0.0,0,-0.356137
0.15267114,1.2823049,0.7020916,-0.30568087,-0.17285345,-0.15674105,0.0,0.0,0,-0.353076
0.15961428,1.2753505,0.7021121,-0.31001028,-0.18068862,-0.15671727,0.0,0.0,0,-0.350103
0.1665577,1.2682996,0.70213234,-0.31433985,-0.18852259,-0.1566936,0.0,0.0,0,-0.347194
0.1735014,1.2611523,0.7021524,-0.31866965,-0.19635539,-0.15667003,0.0,0.0,0,-0.367744
0.18043765,1.2538998,0.7017963,-0.32343498,-0.20458968,-0.1646902,0.0,0.0,0,-0.367895
0.18737897,1.2465385,0.7018938,-0.32825857,-0.21242164,-0.15663931,0.0,0.0,0,-0.335514
0.19432048,1.239081,0.70189226,-0.33258358,-0.22025359,-0.1566385,0.0,0.0,0,-0.333074
0.201262,1.2315271,0.7018906,-0.33690864,-0.22808549,-0.156638,0.0,0.0,0,-0.330738
0.2082037,1.2238767,0.7018889,-0.34123367,-0.23591734,-0.1566374,0.0,0.0,1,0.756928
0.21507016,1.2161574,0.6924068,-0.3440078,-0.24176629,-0.116978504,0.0,0.0,1,0.923179
0.22186585,1.2083801,0.6834214,-0.34630394,-0.24568471,-0.07836889,0.0,0.0,1,0.929099
0.22860155,1.2005317,0.6758431,-0.349195,-0.24799968,-0.046299443,0.0,0.0,1,1.220299
0.23526983,1.1926234,0.66729987,-0.35155526,-0.2484741,-0.009488876,0.0,0.0,1,1.263977
0.24187832,1.1846437,0.65975153,-0.35446918,-0.24735266,0.022428941,0.0,0.0,1,1.858421
0.24839516,1.1765943,0.64823455,-0.35717914,-0.24384624,0.07012858,0.0,0.0,1,2.144420
0.25481814,1.1684831,0.6364117,-0.35953283,-0.23786286,0.11966802,0.0,0.0,1,2.183639
0.26115924,1.1602963,0.62612265,-0.36258385,-0.22976416,0.16197377,0.0,0.0,1,2.607879
0.26740703,1.152056,0.6143166,-0.36464462,-0.21916868,0.2119095,0.0,0.0,1,2.318469
0.27359572,1.1437367,0.60684997,-0.3680065,-0.207035,0.24267344,0.0,0.0,1,2.961301
0.27969104,1.1353525,0.5950757,-0.3706748,-0.19246547,0.29139066,0.0,0.0,1,2.984377
0.28570566,1.1268883,0.58490235,-0.37412938,-0.17583382,0.33263248,0.0,0.0,1,3.292266
0.29163122,1.1183441,0.5736742,-0.37761286,-0.15693326,0.37801144,0.0,0.0,1,3.187941
0.29749507,1.1097319,0.5658128,-0.38071653,-0.13640596,0.41054597,0.0,0.0,1,3.692876
0.303271,1.1010567,0.5546738,-0.3836259,-0.11359644,0.45619068,0.0,0.0,1,3.839136
0.3089594,1.0922968,0.54362,-0.38760307,-0.088573545,0.50045794,0.0,0.0,1,4.013197
0.31456536,1.0834641,0.5331945,-0.3911677,-0.06144668,0.54253733,0.0,0.0,1,4.128677
0.32009563,1.074561,0.5236241,-0.3947366,-0.032390732,0.5811189,0.0,0.0,1,4.174946
0.32555905,1.0655816,0.51520514,-0.39869633,-0.0016470936,0.61487305,0.0,0.0,1,-1.784356
0.33094987,1.0565262,0.50609124,-0.4027436,0.030919503,0.65133214,0.0,0.0,1,-2.267219
0.33625287,1.0473726,0.49511462,-0.4079153,0.06569016,0.6954135,0.0,0.0,1,-2.615977
0.34149122,1.0381415,0.48711878,-0.41227123,0.1020555,0.72730684,0.0,0.0,0,-3.206498
0.3467284,1.028831,0.4871328,-0.41670227,0.1384175,0.7272406,0.0,0.0,0,-3.206555
0.3519639,1.0194407,0.4871528,-0.4211329,0.1747762,0.7271744,0.0,0.0,0,-3.206727
0.3571972,1.0099705,0.48717886,-0.42556292,0.2111316,0.7271083,0.0,0.0,0,-3.206980
0.362428,1.0004202,0.48721084,-0.42999226,0.24748369,0.727042,0.0,0.0,0,-3.207397
0.36765605,0.99078983,0.4872488,-0.43442076,0.28383246,0.7269758,0.0,0.0,0,-3.207874
0.37288064,0.981079,0.48729262,-0.4388483,0.3201779,0.72690964,0.0,0.0,0,-3.208522
0.37810153,0.97128785,0.4873423,-0.44327462,0.35652003,0.7268435,0.0,0.0,0,-3.209236
0.38331833,0.9614156,0.48739773,-0.4476997,0.39285886,0.7267773,0.0,0.0,0,-3.210110
0.38853064,0.9514624,0.4874588,-0.45212334,0.4291944,0.7267112,0.0,0.0,0,-3.211140
0.39373797,0.9414282,0.48752546,-0.45654547,0.4655266,0.7266451,0.0,0.0,2,3.363505
0.3985688,0.9327378,0.45007578,-0.39774325,0.50229365,0.7353422,0.0,0.0,2,2.698536
0.40291452,0.9249198,0.40268525,-0.35959518,0.5385305,0.7247379,0.0,0.0,2,1.200254
0.40700045,0.91807693,0.37682122,-0.31726298,0.5754277,0.73794377,0.0,0.0,2,2.474671
0.4106968,0.9123791,0.3381487,-0.26736212,0.6128943,0.74933136,0.0,0.0,0,-3.655490
0.4143861,0.9065992,0.3382481,-0.27178034,0.65035725,0.7492589,0.0,0.0,0,-3.653553
0.41806775,0.900737,0.33835298,-0.27619597,0.68781656,0.7491864,0.0,0.0,0,-3.651571
0.4217415,0.89479196,0.33846313,-0.28060895,0.72527224,0.749114,0.0,0.0,2,4.713172
0.424642,0.8897607,0.26252612,-0.24042681,0.7621163,0.7368811,0.0,0.0,2,0.220922
0.4271265,0.8850426,0.22225673,-0.22691594,0.79844016,0.7264782,0.0,0.0,2,0.776608
0.42912036,0.8806798,0.17453796,-0.21145377,0.834177,0.71473783,0.0,0.0,2,0.150940
0.43062887,0.8765654,0.12744386,-0.20063616,0.86919266,0.7003134,0.0,0.0,0,-3.568580
0.4321292,0.8723638,0.12756069,-0.20502445,0.9042054,0.70025426,0.0,0.0,0,-3.563175
0.43362093,0.86807543,0.12768105,-0.20940997,0.9392151,0.7001952,0.0,0.0,0,-3.557587
0.4351038,0.8636992,0.12780474,-0.2137926,0.9742219,0.70013607,0.0,0.0,0,-3.551899
0.4365778,0.85923487,0.12793167,-0.21817231,1.0092256,0.70007694,0.0,0.0,2,-1.082280
0.43781596,0.85514045,0.10508504,-0.20254554,1.0448644,0.7127757,0.0,0.0,2,-0.989485
0.43856782,0.8512303,0.05774066,-0.1945689,1.0801214,0.7051405,0.0,0.0,3,-3.182883
0.43934193,0.8473037,0.06190781,-0.194583,1.113545,0.6684719,0.0,0.0,3,-2.861688
0.4401433,0.84338063,0.066600114,-0.19334984,1.1446674,0.6224484,0.0,0.0,3,-2.586293
0.4409706,0.83946663,0.07106022,-0.19170144,1.1733648,0.57394826,0.0,0.0,3,-2.387886
0.44182664,0.8355563,0.07557002,-0.19028267,1.1997122,0.5269476,0.0,0.0,3,-2.197053
0.4427003,0.8316392,0.07868792,-0.18946071,1.2240217,0.48619065,0.0,0.0,3,-1.895939
0.4436001,0.8277317,0.082678325,-0.18758467,1.2458584,0.43673483,0.0,0.0,3,-1.593782
0.44452915,0.823843,0.086873546,-0.18511064,1.2649958,0.38274723,0.0,0.0,3,-1.323827
0.44547996,0.8199706,0.09016357,-0.18279576,1.281546,0.33100477,0.0,0.0,0,-1.742323
0.4464286,0.81600195,0.0901968,-0.18712257,1.298096,0.33099848,0.0,0.0,0,-1.736174
0.44737473,0.81193715,0.0902302,-0.191449,1.3146455,0.33099222,0.0,0.0,0,-1.729980
0.44831866,0.8077759,0.09026374,-0.19577506,1.3311949,0.33098596,0.0,0.0,3,-0.910155
0.44927397,0.80364174,0.09230226,-0.19279745,1.3449713,0.27552918,0.0,0.0,3,-0.824009
0.45024997,0.79951245,0.09505917,-0.19105272,1.3563936,0.22844473,0.0,0.0,3,-0.574543
0.45123178,0.7953827,0.0962236,-0.1896705,1.3656634,0.1853958,0.0,0.0,3,-0.142905
0.4522317,0.79128915,0.09872751,-0.18606415,1.3719028,0.12478745,0.0,0.0,3,-0.109776
0.45324907,0.78719443,0.10094037,-0.18465652,1.3759362,0.080666065,0.0,0.0,3,0.239963
0.45428953,0.78312093,0.103790805,-0.18191606,1.3772454,0.026185935,0.0,0.0,3,0.519038
0.45535126,0.7790697,0.106460765,-0.1791014,1.3758103,-0.028704014,0.0,0.0,3,0.634350
0.4564232,0.7750122,0.10788123,-0.17801973,1.3723204,-0.06979804,0.0,0.0,3,1.046793
0.45751637,0.77098674,0.110624656,-0.1746526,1.3658787,-0.12883437,0.0,0.0,0,0.575884
0.4586091,0.766864,0.11062982,-0.1789733,1.359437,-0.128834,0.0,0.0,0,0.580711
0.45970163,0.7626443,0.11063497,-0.18329403,1.3529953,-0.12883362,0.0,0.0,0,0.585626
0.46079367,0.7583274,0.11064012,-0.18761477,1.3465536,-0.12883326,0.0,0.0,0,0.590562
0.46188536,0.7539136,0.11064526,-0.19193555,1.340112,-0.12883289,0.0,0.0,2,3.492207
0.46239632,0.74963266,0.05258327,-0.18607877,1.3337473,-0.12729487,0.0,0.0,2,1.032245
0.46220827,0.7452463,-0.017078603,-0.19025499,1.3266,-0.14294589,0.0,0.0,2,-0.408134
0.46133384,0.7409881,-0.08563836,-0.18451568,1.319359,-0.1448205,0.0,0.0,0,0.747447
0.46045905,0.73663276,-0.0856319,-0.18883677,1.3121179,-0.14481997,0.0,0.0,0,0.753836
0.45958385,0.73218054,-0.085625455,-0.1931579,1.3048769,-0.14481944,0.0,0.0,0,0.760311
0.4587081,0.7276311,-0.085619025,-0.19747907,1.297636,-0.14481892,0.0,0.0,2,-2.618753
0.45707217,0.7232112,-0.16150871,-0.19155352,1.2901201,-0.15031776,0.0,0.0,2,-5.740500
0.45443115,0.7190558,-0.26190838,-0.17967725,1.2823879,-0.15464649,0.0,0.0,0,1.027974
0.45178956,0.7148033,-0.2619011,-0.18399866,1.2746556,-0.15464588,0.0,0.0,0,1.032272
0.4491474,0.7104539,-0.26189384,-0.18832012,1.2669233,-0.15464523,0.0,0.0,0,1.036671
0.4465049,0.7060075,-0.2618866,-0.1926416,1.259191,-0.15464456,0.0,0.0,0,1.041144
0.44386178,0.70146406,-0.26187935,-0.19696313,1.2514589,-0.15464388,0.0,0.0,0,1.045694
0.4412182,0.6968238,-0.2618721,-0.2012847,1.2437267,-0.15464325,0.0,0.0,0,1.050342
0.43857402,0.69208646,-0.26186493,-0.20560631,1.2359946,-0.15464261,0.0,0.0,0,1.055050
0.4359294,0.68725234,-0.26185775,-0.20992798,1.2282624,-0.15464197,0.0,0.0,0,1.059850
0.43328428,0.6823211,-0.26185057,-0.21424964,1.2205304,-0.15464133,0.0,0.0,0,1.064694
0.4306387,0.6772931,-0.26184344,-0.21857135,1.2127984,-0.15464067,0.0,0.0,0,1.069647
0.42799264,0.672168,-0.26183632,-0.22289309,1.2050663,-0.15464,0.0,0.0,0,1.074621
0.425346,0.66694623,-0.26182923,-0.22721487,1.1973344,-0.15463936,0.0,0.0,0,1.079705
0.4226989,0.6616273,-0.26182216,-0.2315367,1.1896025,-0.15463872,0.0,0.0,0,1.084807
0.4200514,0.6562117,-0.2618151,-0.23585857,1.1818706,-0.15463805,0.0,0.0,0,1.090008
0.41740322,0.6506991,-0.26180807,-0.24018046,1.1741387,-0.1546374,0.0,0.0,2,-4.776863
0.4138996,0.645492,-0.34715804,-0.22637865,1.166024,-0.16229399,0.0,0.0,2,-1.347935
0.4100627,0.6404414,-0.38047022,-0.2195087,1.1580212,-0.1600542,0.0,0.0,0,1.223732
0.4062253,0.635294,-0.38046274,-0.22383086,1.1500186,-0.16005354,0.0,0.0,0,1.228740
0.40238732,0.63004977,-0.38045532,-0.22815305,1.1420159,-0.16005284,0.0,0.0,0,1.233793
0.39854878,0.62470883,-0.3804479,-0.2324753,1.1340133,-0.16005214,0.0,0.0,0,1.238902
0.3947099,0.61927086,-0.3804405,-0.23679757,1.1260108,-0.16005142,0.0,0.0,0,1.244073
0.3908704,0.6137361,-0.38043314,-0.24111988,1.1180083,-0.16005068,0.0,0.0,0,1.249292
0.3870303,0.6081044,-0.3804258,-0.24544223,1.1100057,-0.16004995,0.0,0.0,0,1.254552
0.38318977,0.60237604,-0.3804185,-0.24976464,1.1020032,-0.16004926,0.0,0.0,0,1.259855
0.37934875,0.59655076,-0.38041124,-0.25408706,1.0940008,-0.16004856,0.0,0.0,0,1.265210
0.37550727,0.59062874,-0.380404,-0.25840956,1.0859984,-0.16004786,0.0,0.0,0,1.270618
0.37166518,0.5846099,-0.38039678,-0.26273206,1.077996,-0.16004714,0.0,0.0,3,2.380012
0.36786127,0.57862025,-0.37511316,-0.25971514,1.0670531,-0.2188591,0.0,0.0,3,2.485874
0.36409742,0.5726239,-0.36986607,-0.25872335,1.0538473,-0.26411435,0.0,0.0,3,2.683622
0.36036462,0.56663156,-0.3653924,-0.25722954,1.0382907,-0.3111319,0.0,0.0,0,2.021246
0.35663003,0.56054366,-0.3653658,-0.2615598,1.0227344,-0.3111267,0.0,0.0,0,2.026565
0.35289353,0.5543602,-0.36533946,-0.26589033,1.0071783,-0.31112152,0.0,0.0,0,2.031898
0.34915525,0.5480814,-0.36531335,-0.27022114,0.9916225,-0.3111163,0.0,0.0,0,2.037288
0.3454152,0.54170704,-0.36528748,-0.27455223,0.97606695,-0.31111112,0.0,0.0,0,2.042700
0.34167337,0.5352373,-0.36526188,-0.27888358,0.9605116,-0.3111059,0.0,0.0,0,2.048141
0.33792982,0.5286723,-0.36523658,-0.28321517,0.9449566,-0.31110072,0.0,0.0,3,2.956004
0.33422756,0.52209264,-0.35962635,-0.28281835,0.9273002,-0.35312742,0.0,0.0,3,3.414703
0.3305789,0.515519,-0.3523783,-0.28126848,0.9070001,-0.4060014,0.0,0.0,3,3.415985
0.32696667,0.50893795,-0.34704295,-0.28065425,0.8845738,-0.44852662,0.0,0.0,0,2.728721
0.323351,0.502264,-0.3469931,-0.2850008,0.8621483,-0.44851103,0.0,0.0,0,2.733904
0.319732,0.49549714,-0.34694415,-0.28934813,0.8397235,-0.44849554,0.0,0.0,0,2.739088
0.31610957,0.48863763,-0.3468961,-0.29369614,0.8172996,-0.44847998,0.0,0.0,0,2.744296
0.31248397,0.4816854,-0.34684905,-0.2980449,0.7948764,-0.44846445,0.0,0.0,0,2.749496
0.30885524,0.4746408,-0.34680295,-0.3023944,0.77245396,-0.4484489,0.0,0.0,0,2.754713
0.30522346,0.46750376,-0.34675786,-0.30674452,0.7500323,-0.44843334,0.0,0.0,0,2.759947
0.30158845,0.4602743,-0.34671378,-0.31109533,0.7276115,-0.44841784,0.0,0.0,0,2.765155
0.29795057,0.45295274,-0.3466708,-0.31544676,0.70519143,-0.44840226,0.0,0.0,0,2.770377
0.2943097,0.44553912,-0.34662884,-0.31979886,0.6827721,-0.44838673,0.0,0.0,3,3.994791
0.29073724,0.43811882,-0.33741608,-0.31928152,0.6577684,-0.50007504,0.0,0.0,3,4.062133
0.2872224,0.43068096,-0.329469,-0.3195181,0.6305619,-0.5441312,0.0,0.0,0,3.240546
0.2837037,0.42315382,-0.3294125,-0.32388818,0.6033567,-0.5441035,0.0,0.0,0,3.245324
0.28018123,0.41553757,-0.32935804,-0.32825926,0.5761529,-0.54407567,0.0,0.0,0,3.250044
0.2766553,0.40783238,-0.3293057,-0.3326313,0.54895055,-0.5440479,0.0,0.0,0,3.254740
0.27312595,0.40003848,-0.32925552,-0.3370043,0.52174956,-0.54402006,0.0,0.0,0,3.259400
0.26959333,0.39215586,-0.32920754,-0.34137818,0.49454993,-0.54399234,0.0,0.0,0,3.264002
0.26605758,0.38418475,-0.32916176,-0.3457529,0.4673517,-0.54396456,0.0,0.0,0,3.268552
0.26251888,0.37612525,-0.32911822,-0.35012844,0.44015488,-0.54393685,0.0,0.0,0,3.273047
0.2589774,0.36797726,-0.329077,-0.35450473,0.41295943,-0.54390913,0.0,0.0,0,3.277442
0.25543326,0.35974133,-0.32903808,-0.35888177,0.38576537,-0.54388136,0.0,0.0,0,3.281768
0.25188684,0.35141718,-0.32900152,-0.36325943,0.3585727,-0.54385364,0.0,0.0,0,3.286013
0.24833794,0.34300497,-0.3289673,-0.36763775,0.33138138,-0.543826,0.0,0.0,0,3.290114
0.24478713,0.33450496,-0.32893547,-0.37201664,0.30419147,-0.54379827,0.0,0.0,2,4.213487
0.24114648,0.3264908,-0.33782247,-0.35092783,0.27714515,-0.5409262,0.0,0.0,2,4.035345
0.23707971,0.3197947,-0.37954867,-0.29270002,0.24939944,-0.55491465,0.0,0.0,0,3.294669
0.23301125,0.31301138,-0.37952313,-0.297083,0.22165518,-0.55488527,0.0,0.0,0,3.298705
0.22894125,0.30614084,-0.37950024,-0.3014664,0.19391242,-0.5548558,0.0,0.0,0,3.302733
0.22487001,0.29918313,-0.37948,-0.30585018,0.1661711,-0.5548264,0.0,0.0,0,3.306741
0.22079754,0.29213828,-0.37946242,-0.31023437,0.13843128,-0.554797,0.0,0.0,0,3.310709
0.2167243,0.2850064,-0.37944752,-0.31461877,0.110692926,-0.5547675,0.0,0.0,0,3.314658
0.21265021,0.27778745,-0.37943533,-0.31900346,0.08295604,-0.5547381,0.0,0.0,0,3.318552
0.20857564,0.27048147,-0.3794258,-0.32338837,0.05522063,-0.5547086,0.0,0.0,0,3.322391
0.20450068,0.26308852,-0.37941897,-0.32777342,0.02748669,-0.5546792,0.0,0.0,0,3.277006
0.20042562,0.2556086,-0.37941486,-0.33215854,-0.00024578266,-0.55464983,0.0,0.0,0,-2.216350
0.19635057,0.24804169,-0.37941346,-0.3365437,-0.027976802,-0.5546204,0.0,0.0,0,-2.212454
0.19227572,0.24038774,-0.3794148,-0.3409289,-0.055706337,-0.554591,0.0,0.0,0,-2.208693
0.18820134,0.23264688,-0.37941885,-0.34531403,-0.08343441,-0.55456156,0.0,0.0,1,-2.783952
0.18403979,0.2248285,-0.3904224,-0.34911552,-0.10894816,-0.5102751,0.0,0.0,1,-2.431758
0.17980328,0.21694444,-0.3999303,-0.35229877,-0.13252056,-0.47144836,0.0,0.0,1,-2.358190
0.17547044,0.20899887,-0.4121527,-0.35514852,-0.1535918,-0.421425,0.0,0.0,0,-1.499671
0.17113829,0.20096205,-0.41216072,-0.3595058,-0.17466241,-0.42141214,0.0,0.0,0,-1.496166
0.16680679,0.19283374,-0.41217,-0.36386296,-0.19573237,-0.4213992,0.0,0.0,0,-1.492944
0.16247615,0.18461402,-0.41218036,-0.36821997,-0.21680169,-0.42138633,0.0,0.0,0,-1.490032
0.15814629,0.17630282,-0.41219193,-0.37257683,-0.23787038,-0.42137346,0.0,0.0,1,-1.920163
0.15373687,0.16793683,-0.4223585,-0.37493744,-0.2567845,-0.37828156,0.0,0.0,1,-1.632642
0.14925966,0.15951127,-0.43103743,-0.37747815,-0.27384558,-0.34122223,0.0,0.0,1,-1.500136
0.14470558,0.15102512,-0.44080472,-0.37996587,-0.28883556,-0.29979917,0.0,0.0,0,-0.850911
0.14015207,0.14244463,-0.44081268,-0.38430417,-0.30382526,-0.2997945,0.0,0.0,0,-0.850019
0.13559933,0.13376985,-0.44082102,-0.38864237,-0.31881472,-0.29978988,0.0,0.0,1,-1.319723
0.13095722,0.12504438,-0.45216823,-0.3904934,-0.33135337,-0.25077283,0.0,0.0,1,-1.015757
0.12623462,0.11626755,-0.4624137,-0.39237678,-0.34165195,-0.20597164,0.0,0.0,1,-0.745630
0.12144289,0.107428275,-0.47115785,-0.3947754,-0.35005733,-0.16810727,0.0,0.0,1,-0.555172
0.116583064,0.0985242,-0.4797524,-0.3972698,-0.35660943,-0.13104217,0.0,0.0,0,0.015297
0.111723326,0.08952342,-0.47975427,-0.40159318,-0.3631615,-0.13104184,0.0,0.0,0,0.008189
0.10686388,0.08042601,-0.47975618,-0.40591657,-0.36971357,-0.13104147,0.0,0.0,0,-0.002197
0.10200443,0.0712319,-0.4797581,-0.41023996,-0.37626562,-0.13104108,0.0,0.0,2,6.688238
0.09756813,0.063293636,-0.43774024,-0.35438016,-0.38253155,-0.12531886,0.0,0.0,2,6.658290
0.09363518,0.05640794,-0.38820347,-0.30740932,-0.38796258,-0.10862081,0.0,0.0,2,3.340139
0.0899148,0.050210033,-0.36694095,-0.27686042,-0.3933987,-0.10872257,0.0,0.0,2,4.570913
0.086583994,0.044653855,-0.32873338,-0.24814978,-0.3980455,-0.09293625,0.0,0.0,2,13.035885
0.0833642,0.04004918,-0.31691682,-0.20608215,-0.40347117,-0.10851301,1.0,0.0,2,8.910800
0.08073282,0.03714989,-0.26901323,-0.1278546,-0.39515707,0.16929874,1.0,0.0,0,3.932234
0.07829742,0.034669314,-0.26546925,-0.10438539,-0.37167096,0.46992922,1.0,0.0,0,4.935572
0.076030925,0.032520544,-0.2612235,-0.08698707,-0.3351796,0.729969,1.0,0.0,0,4.934968
0.07384958,0.030499086,-0.2593588,-0.0808981,-0.29226762,0.85838854,1.0,0.0,0,4.359152
0.071666524,0.02839974,-0.25981525,-0.08557604,-0.24962431,0.8529809,1.0,0.0,2,4.158366
0.06940861,0.026940688,-0.2658962,-0.058549475,-0.20895498,0.8133863,1.0,0.0,2,-4.900354
0.06720705,0.026441583,-0.26018983,-0.017024817,-0.16871062,0.8048878,0.0,0.0,2,3.656839
0.0650156,0.027334724,-0.25872174,0.04370917,-0.12919389,0.7903358,0.0,0.0,0,4.187139
0.06282587,0.028151188,-0.2587514,0.039257944,-0.08968137,0.79025084,0.0,0.0,0,4.179367
0.060637284,0.02889112,-0.25877327,0.03480605,-0.050173037,0.7901673,0.0,0.0,0,4.171792
0.05844946,0.02955459,-0.25878733,0.030353693,-0.010668929,0.7900828,0.0,0.0,0,-1.601741
0.056261636,0.030141601,-0.25879353,0.025901083,0.028830923,0.7899978,0.0,0.0,0,-3.741832
0.054073524,0.03065208,-0.25879186,0.021448424,0.06832652,0.7899128,0.0,0.0,0,-3.747901
0.05188427,0.031086026,-0.2587823,0.016995924,0.10781786,0.7898279,0.0,0.0,0,-3.753786
0.049693488,0.031443294,-0.25876492,0.012543787,0.14730498,0.789743,0.0,0.0,0,-3.759481
0.047500707,0.03172396,-0.25873974,0.008092223,0.18678784,0.7896582,0.0,0.0,0,-3.764963
0.045305252,0.031927668,-0.2587068,0.003641435,0.22626647,0.7895733,0.0,0.0,0,-3.770266
0.043106653,0.03205434,-0.25866616,-0.00080837234,0.26574087,0.7894885,0.0,0.0,0,6.224614
0.040904332,0.03210369,-0.25861788,-0.005257002,0.30521104,0.7894038,0.0,1.0,0,-1.093931
0.038647365,0.03284062,-0.24760766,0.027594853,0.32696313,0.43354088,0.0,1.0,0,-0.147983
0.036283493,0.03415283,-0.24050006,0.057367664,0.33122337,0.08515445,0.0,1.0,3,1.516725
0.033932496,0.035796057,-0.22785671,0.07468466,0.32372504,-0.14990039,0.0,1.0,3,2.153938
0.031699277,0.037358534,-0.21522534,0.07123775,0.31528956,-0.16871063,0.0,1.0,3,-8.198853
0.029525757,0.038855847,-0.20762508,0.06863114,0.30520627,-0.20166545,0.0,0.0,0,1.153758
0.027351856,0.04025732,-0.20762113,0.06430288,0.29512307,-0.20166402,0.0,0.0,0,1.140373
0.02517786,0.041562807,-0.20761725,0.0599746,0.28503993,-0.2016627,0.0,0.0,0,1.127587
0.023003578,0.042772446,-0.20761354,0.055646293,0.27495688,-0.20166127,0.0,0.0,0,1.115381
0.02082901,0.04388617,-0.20760997,0.051317964,0.26487392,-0.20165987,0.0,0.0,0,1.103718
0.018654251,0.04490398,-0.20760648,0.04698961,0.25479096,-0.20165844,0.0,0.0,0,1.092528
0.016479205,0.045825943,-0.20760313,0.042661235,0.24470812,-0.20165701,0.0,0.0,3,2.204159
0.014383221,0.04668797,-0.19758907,0.040263157,0.23250364,-0.24408977,0.0,0.0,3,2.264749
0.012355995,0.047473107,-0.18889907,0.037017487,0.21851236,-0.2798255,0.0,0.0,3,2.624496
0.010410309,0.048181996,-0.17862886,0.033785142,0.2024245,-0.3217581,0.0,0.0,0,1.661915
0.0084641455,0.048797045,-0.17862193,0.029443564,0.18633687,-0.32175237,0.0,0.0,0,1.652754
0.006517601,0.04931825,-0.17861554,0.025101917,0.17024957,-0.32174665,0.0,0.0,3,2.810749
0.0046512606,0.04975706,-0.16850092,0.021476937,0.1521218,-0.36255527,0.0,0.0,3,2.928688
0.002859688,0.05011855,-0.15907723,0.017998429,0.13208076,-0.40082058,0.0,0.0,3,3.246559
0.0011510849,0.050412092,-0.14854893,0.0148715805,0.1098907,-0.4438011,0.0,0.0,3,3.404176
-0.0004781723,0.050634537,-0.13849178,0.011509185,0.08565969,-0.48462048,0.0,0.0,3,3.338948
-0.002045536,0.050764855,-0.13069998,0.0070785633,0.05987861,-0.51562196,0.0,0.0,3,3.616638
-0.003542614,0.050810777,-0.12182055,0.002927157,0.03231997,-0.551173,0.0,0.0,3,3.760725
-0.0049708365,0.05076514,-0.113151655,-0.0016453805,0.0030309998,-0.58578,0.0,0.0,3,-1.602354
-0.006322575,0.050641045,-0.10355461,-0.005746233,-0.028177967,-0.6241798,0.0,0.0,3,-2.499473
-0.007605648,0.050438486,-0.0949955,-0.009956266,-0.06109631,-0.6583676,0.0,0.0,3,-2.533241
-0.008802796,0.050147876,-0.084300935,-0.014735819,-0.09615945,-0.7012634,0.0,0.0,3,-2.675223
-0.009901333,0.04977351,-0.07210103,-0.019497514,-0.1336659,-0.75013006,0.0,0.0,3,-3.243095
-0.010925198,0.04930309,-0.0629475,-0.02491432,-0.17303868,-0.7874563,0.0,0.0,3,-3.581283
-0.011877632,0.048731312,-0.054306358,-0.0307061,-0.21420504,-0.82332814,0.0,0.0,0,-4.311688
-0.012826825,0.04808422,-0.05434788,-0.035167985,-0.25536656,-0.8232318,0.0,0.0,0,-4.328281
-0.013772297,0.04736167,-0.054398127,-0.03962859,-0.2965233,-0.8231357,0.0,0.0,0,-4.342531
-0.014713192,0.046563443,-0.054456998,-0.0440877,-0.3376752,-0.82303965,0.0,0.0,0,-4.354664
-0.015649032,0.045689188,-0.0545244,-0.048545063,-0.37882236,-0.82294357,0.0,0.0,0,-4.364915
-0.016579341,0.044738542,-0.05460021,-0.05300045,-0.4199647,-0.8228475,0.0,0.0,0,9.726052
-0.017306995,0.044394,-0.051552903,-0.021856705,-0.4428664,-0.45782083,1.0,0.0,0,0.568052
-0.017800141,0.04455565,-0.04515033,0.0058355397,-0.4473234,-0.08899431,1.0,0.0,0,0.799985
-0.018103695,0.045067202,-0.040356502,0.025873218,-0.4363235,0.2201,1.0,0.0,0,1.489368
-0.018327426,0.04567259,-0.03841383,0.031771645,-0.41887248,0.34909174,1.0,0.0,0,1.715836
-0.018583775,0.04616111,-0.0404019,0.026014538,-0.40296283,0.3181923,1.0,0.0,0,-8.235947
-0.018839264,0.046555504,-0.040415,0.02167463,-0.3870535,0.31818682,0.0,0.0,0,1.740798
-0.019093895,0.04685584,-0.04042761,0.01733458,-0.3711444,0.31818128,0.0,0.0,0,1.713278
-0.019347668,0.04706212,-0.040439744,0.012994403,-0.35523567,0.31817585,0.0,0.0,0,1.681752
-0.019600773,0.047174416,-0.040451393,0.00865409,-0.33932713,0.31817037,0.0,0.0,0,1.646902
-0.019853115,0.047192656,-0.040462554,0.0043136603,-0.32341886,0.31816474,0.0,0.0,0,1.609807
-0.02010479,0.04711698,-0.04047323,-2.688256e-05,-0.30751088,0.31815916,0.0,0.0,0,1.571945
-0.020355701,0.046947177,-0.04048342,-0.0043675364,-0.29160318,0.31815362,0.0,0.0,0,1.534806
-0.020606041,0.046683535,-0.040493105,-0.0087082945,-0.27569574,0.31814808,0.0,0.0,0,1.499860
-0.020855809,0.046325766,-0.040502302,-0.013049153,-0.2597886,0.3181425,0.0,0.0,0,1.468156
-0.021104908,0.04587401,-0.040510993,-0.017390106,-0.24388176,0.31813693,0.0,0.0,0,1.440329
-0.021353532,0.045328412,-0.040519185,-0.021731148,-0.22797517,0.31813136,0.0,0.0,0,1.416637
-0.021601677,0.044688758,-0.040526874,-0.026072275,-0.21206887,0.3181258,0.0,0.0,0,1.396944
-0.02184925,0.043955263,-0.04053406,-0.030413479,-0.19616286,0.31812024,0.0,0.0,0,1.380949
-0.022096347,0.043127857,-0.040540736,-0.034754757,-0.18025714,0.31811467,0.0,0.0,0,1.368215
-0.022343064,0.042206462,-0.0405469,-0.039096102,-0.1643517,0.31810907,0.0,0.0,0,1.358248
-0.022589397,0.041191302,-0.04055256,-0.043437514,-0.14844655,0.3181035,0.0,0.0,0,1.350608
-0.022835445,0.040082227,-0.04055771,-0.04777898,-0.13254166,0.31809792,0.0,0.0,0,1.344850
-0.023081208,0.038879238,-0.04056234,-0.0521205,-0.11663705,0.3180924,0.0,0.0,0,1.340567
-0.023326779,0.03758241,-0.040566463,-0.056462064,-0.100732714,0.3180868,0.0,0.0,0,1.337423
-0.023571968,0.036191735,-0.04057007,-0.06080367,-0.08482866,0.31808126,0.0,0.0,0,1.335070
-0.023817062,0.034707222,-0.040573157,-0.065145314,-0.06892488,0.31807572,0.0,0.0,0,1.333232
-0.024062062,0.033128794,-0.04057573,-0.069486976,-0.053021368,0.3180702,0.0,0.0,0,1.331608
-0.02430687,0.0314566,-0.04057779,-0.073828675,-0.037118133,0.31806466,0.0,0.0,0,1.329929
-0.024551582,0.029690562,-0.04057933,-0.07817038,-0.02121519,0.31805912,0.0,0.0,0,1.327907
-0.024796296,0.027830683,-0.040580355,-0.0825121,-0.0053125075,0.31805354,0.0,0.0,0,-0.792737
-0.025041008,0.025876962,-0.040580858,-0.08685383,0.010589884,0.318048,0.0,0.0,0,-1.858814
-0.02528572,0.023829326,-0.040580843,-0.09119556,0.026492,0.31804246,0.0,0.0,0,-1.863733
-0.025530528,0.02168785,-0.04058031,-0.09553729,0.042393833,0.31803685,0.0,0.0,0,-1.870388
-0.025775433,0.019452535,-0.04057926,-0.099879004,0.05829539,0.31803128,0.0,0.0,0,-1.879223
-0.026020432,0.017123375,-0.040577687,-0.10422071,0.07419667,0.3180257,0.0,0.0,0,-1.890725
-0.026265716,0.014700303,-0.040575605,-0.108562395,0.09009768,0.31802014,0.0,0.0,0,-1.905334
-0.026511097,0.01218339,-0.040573,-0.112904064,0.105998404,0.31801456,0.0,0.0,0,13.542479
-0.026833344,0.010329948,-0.02978147,-0.08223009,0.10351309,-0.049795054,0.0,1.0,0,4.695849
-0.02726059,0.009044919,-0.022822969,-0.055874124,0.08368699,-0.39662093,0.0,1.0,0,1.471006
-0.027678203,0.0076525663,-0.022346454,-0.060909282,0.06445876,-0.38456437,0.0,1.0,0,1.507866
-0.028096199,0.00616791,-0.022343153,-0.06526079,0.04523102,-0.38455454,0.0,1.0,0,-8.501883
-0.02851429,0.00459095,-0.02234076,-0.06961233,0.026003797,-0.38454473,0.0,0.0,0,1.487431
-0.028932381,0.002921722,-0.022339279,-0.07396389,0.006777041,-0.3845349,0.0,0.0,0,-1.014134
-0.02935047,0.0011601544,-0.022338707,-0.078315474,-0.012449228,-0.38452512,0.0,0.0,0,12.015741
-0.029677391,7.984639e-06,-0.03205685,-0.051237117,-0.0129878465,-0.010665729,1.0,0.0,0,1.237599
-0.029957008,-0.0009501004,-0.035150465,-0.042650376,-0.0054877438,0.15052287,1.0,0.0,0,13.043192
-0.030200768,-0.0010266686,-0.024954742,-0.0034034036,-0.0048924466,0.011919542,1.0,1.0,0,0.168092
-0.030433465,-0.0010210895,-0.023264773,0.0002448354,-0.004898844,-0.00010991136,1.0,1.0,0,0.064573
-0.030657578,-0.0010204458,-0.022395097,2.6014719e-05,-0.0049000946,-1.1670124e-05,1.0,1.0,0,0.199903
-0.030854989,-0.0009238148,-0.020631017,0.0042908546,-0.0040294155,0.017422106,1.0,1.0,0,0.058483
-0.031057835,-0.0009050036,-0.020413537,0.000834987,-0.0038842813,0.0029085032,1.0,1.0,0,0.057441
-0.03125439,-0.0009054327,-0.019659877,-1.7967703e-05,-0.0038841148,8.106162e-06,1.0,1.0,0,0.073150
-0.031441785,-0.00090557575,-0.018740986,-6.215212e-06,-0.0038841942,2.8099632e-06,1.0,1.0,0,0.073944
-0.031620026,-0.00090557575,-0.0178232,3.6465885e-08,-0.0038843737,-2.4726614e-08,1.0,1.0,0,0.074727
-0.031789113,-0.00090557575,-0.016906757,4.2330473e-08,-0.0038845276,-2.5541521e-08,1.0,1.0,0,0.075643
-0.031949043,-0.00090557575,-0.01599035,1.5901889e-09,-0.0038846408,-1.4924444e-08,1.0,1.0,0,0.076557
-0.03209982,-0.00090557575,-0.01507395,-2.2949436e-09,-0.003884759,1.0921123e-08,1.0,1.0,0,0.077476
-0.03224144,-0.00090557575,-0.014157543,-9.56502e-10,-0.0038848382,1.8614198e-08,1.0,1.0,0,0.078402
-0.03237381,-0.00090557575,-0.013241135,4.09507e-10,-0.0038849064,2.3242213e-08,1.0,1.0,0,0.079319
-0.032497026,-0.00090557575,-0.012324725,1.215034e-09,-0.003884961,1.5694887e-08,1.0,1.0,0,0.080235
-0.032611083,-0.00090557575,-0.011408316,1.3954159e-09,-0.003885007,1.58373e-08,1.0,1.0,0,0.081150
-0.032715987,-0.00090557575,-0.010491907,1.3156797e-09,-0.003885051,1.5452535e-08,1.0,1.0,0,0.082067
-0.03281174,-0.00090557575,-0.009575498,9.860419e-10,-0.0038850799,1.679606e-08,1.0,1.0,0,0.082982
-0.03289833,-0.00090557575,-0.008659089,2.4805646e-10,-0.0038851087,1.7047086e-08,1.0,1.0,0,0.083897
-0.03297577,-0.00090557575,-0.0077426797,3.9874898e-10,-0.0038851376,1.7074685e-08,1.0,1.0,0,0.084813
-0.03304405,-0.00090557575,-0.0068262694,6.783874e-10,-0.0038851565,1.6406293e-08,1.0,1.0,0,0.085728
-0.03310318,-0.00090557575,-0.005909859,5.966125e-10,-0.0038851765,2.2172234e-08,1.0,1.0,0,0.086645
-0.033153154,-0.00090557575,-0.0049934494,4.759807e-10,-0.003885187,2.1437518e-08,1.0,1.0,0,0.087560
-0.03319397,-0.00090557575,-0.004077039,3.6201311e-10,-0.0038851995,2.1317632e-08,1.0,1.0,0,0.088484
-0.033225536,-0.00090557575,-0.003160629,5.557135e-10,-0.00388521,2.225644e-08,1.0,1.0,0,0.089400
-0.033247948,-0.00090557575,-0.0022442187,7.3051104e-10,-0.0038852205,2.15118e-08,1.0,1.0,0,0.090316
-0.033261202,-0.00090557575,-0.0013278079,7.647655e-10,-0.0038852245,2.0490925e-08,1.0,1.0,0,0.091230
-0.033265304,-0.00090557575,-0.00041139763,9.196155e-10,-0.0038852359,1.923669e-08,1.0,1.0,0,0.024581
-0.033263683,-0.00090557575,0.0001647497,2.7129833e-08,-0.003887691,-4.7692873e-05,1.0,1.0,0,-0.007796
-0.0332613,-0.00090557575,0.00024149139,3.8272447e-08,-0.0038912946,-6.990669e-05,1.0,1.0,0,0.013729
-0.033260345,-0.00090557575,0.00010361404,1.5822252e-08,-0.003892835,-2.9994824e-05,1.0,1.0,0,0.009252
-0.033260442,-0.00090557575,-1.11556965e-05,-1.6537456e-09,-0.0038926753,3.226212e-06,1.0,1.0,0,-0.002953
-0.033260725,-0.00090557575,-4.1000574e-05,-6.282827e-09,-0.0038920694,1.1870059e-05,1.0,1.0,0,0.001807
-0.03326092,-0.00090557575,-2.306741e-05,-3.7786814e-09,-0.0038917377,6.679011e-06,1.0,1.0,0,0.002142
-0.03326092,-0.00090557575,-1.6717922e-06,-2.3742952e-10,-0.0038917125,4.875641e-07,1.0,1.0,0,-0.000477
-0.033260822,-0.00090557575,6.4218125e-06,8.6441126e-10,-0.0038918229,-1.8611338e-06,1.0,1.0,0,0.000163
-0.033260822,-0.00090557575,4.726091e-06,5.980657e-10,-0.0038918909,-1.3689248e-06,1.0,1.0,0,0.000372
-0.033260822,-0.00090557575,9.873372e-07,1.7739694e-10,-0.0038919072,-2.920898e-07,1.0,1.0,0,0.000011
-0.033260822,-0.00090557575,-8.968776e-07,-8.628298e-11,-0.0038918874,2.680635e-07,1.0,1.0,0,0.000000
-0.033260822,-0.00090557575,-9.0648064e-07,2.2399978e-11,-0.003891874,2.7383587e-07,1.0,1.0,0,0.000062
-0.033260822,-0.00090557575,-3.0005216e-07,-2.1720427e-10,-0.0038918636,8.08053e-08,1.0,1.0,0,0.000020
-0.033260822,-0.00090557575,1.0213405e-07,9.611719e-13,-0.003891866,-3.7307377e-08,1.0,1.0,0,-0.000006
-0.033260822,-0.00090557575,1.6539228e-07,-5.954496e-12,-0.003891863,-5.164933e-08,1.0,1.0,0,0.000008
-0.033260822,-0.00090557575,7.494984e-08,1.7122806e-10,-0.0038918722,-1.4904602e-08,1.0,1.0,0,0.000006
-0.033260822,-0.00090557575,-1.0356585e-08,8.185262e-11,-0.0038918788,2.3838975e-08,1.0,1.0,0,-0.000002
-0.033260822,-0.00090557575,-3.1791e-08,-1.7944843e-10,-0.003891879,1.9793209e-08,1.0,1.0,0,0.000002
-0.033260822,-0.00090557575,-2.038519e-08,-2.890916e-11,-0.0038918718,2.0631747e-08,1.0,1.0,0,0.000000
-0.033260822,-0.00090557575,-8.860306e-09,1.8722052e-10,-0.00389188,2.2809541e-08,1.0,1.0,0,0.000002
-0.033260822,-0.00090557575,-1.9216295e-10,2.4124958e-10,-0.0038918734,2.3503328e-09,1.0,1.0,0,-0.000001
-0.033260822,-0.00090557575,5.867265e-09,-2.280511e-10,-0.0038918827,-1.444972e-08,1.0,1.0,0,100
0.001594925,1.4035126,0.16153142,-0.32921794,-0.0018413248,-0.036589228,0.0,0.0,0,0.280596
0.0031897544,1.396031,0.16131337,-0.3325118,-0.003649481,-0.036165867,0.0,0.0,0,0.185074
0.0047846795,1.3884518,0.16131923,-0.3368571,-0.00545642,-0.036142483,0.0,0.0,0,0.195451
0.0063796043,1.3807756,0.16132459,-0.34118307,-0.0072631277,-0.036137607,0.0,0.0,0,0.204448
0.00797472,1.3730019,0.16132995,-0.34550545,-0.0090695685,-0.03613196,0.0,0.0,0,0.213187
0.00956974,1.3651311,0.1613353,-0.34982717,-0.0108757075,-0.036126286,0.0,0.0,0,0.221880
0.011164856,1.357163,0.16134062,-0.354149,-0.012681596,-0.036120955,0.0,0.0,0,0.230595
0.012759971,1.3490977,0.16134593,-0.35847092,-0.014487203,-0.036115743,0.0,0.0,0,0.239329
0.014355183,1.3409355,0.16135123,-0.36279285,-0.016292535,-0.036110215,0.0,0.0,0,0.248090
0.01595049,1.3326758,0.16135652,-0.36711487,-0.018097613,-0.036105193,0.0,0.0,0,0.256865
0.017545795,1.324319,0.16136177,-0.3714369,-0.019902427,-0.03609968,0.0,0.0,0,0.265662
0.019141197,1.315865,0.16136701,-0.37575898,-0.021706993,-0.03609464,0.0,0.0,0,0.274485
0.020736694,1.3073137,0.16137223,-0.38008106,-0.023511287,-0.036089167,0.0,0.0,0,0.283279
0.022332191,1.2986654,0.16137744,-0.38440326,-0.025315333,-0.036084246,0.0,0.0,0,0.292131
0.023927784,1.2899199,0.16138263,-0.38872546,-0.027119111,-0.036078803,0.0,0.0,0,0.300987
0.025523376,1.2810769,0.1613878,-0.39304775,-0.028922647,-0.036073927,0.0,0.0,0,0.309850
0.027119065,1.2721369,0.16139296,-0.39737,-0.030725911,-0.036068544,0.0,0.0,0,0.318727
0.028714752,1.2630997,0.16139808,-0.4016924,-0.032528933,-0.03606371,0.0,0.0,0,0.327628
0.030310536,1.2539651,0.1614032,-0.40601477,-0.034331672,-0.036058374,0.0,0.0,0,0.336494
0.031906318,1.2447337,0.16140829,-0.41033724,-0.036134187,-0.036053564,0.0,0.0,0,0.345412
0.0335022,1.2354048,0.16141334,-0.41465968,-0.037936438,-0.03604828,0.0,0.0,0,0.354314
0.035098173,1.225979,0.16141841,-0.4189822,-0.039738446,-0.0360435,0.0,0.0,0,0.363261
0.036694147,1.2164556,0.16142341,-0.42330474,-0.041540183,-0.036038235,0.0,0.0,0,0.372171
0.03829012,1.2068352,0.16142842,-0.4276274,-0.043341678,-0.036033392,0.0,0.0,0,0.381096
0.039886285,1.1971176,0.16143341,-0.43195006,-0.045142937,-0.036028143,0.0,0.0,0,0.305079
0.04148178,1.1872811,0.16137287,-0.4372254,-0.046944138,-0.036024008,0.0,0.0,0,0.401351
0.04307728,1.1773477,0.16137287,-0.44154567,-0.04874533,-0.036024056,0.0,0.0,0,0.410277
0.044672776,1.1673169,0.16137286,-0.44586596,-0.050546538,-0.036024056,0.0,0.0,0,0.419178
0.046268273,1.1571892,0.16137284,-0.45018622,-0.05234774,-0.03602409,0.0,0.0,0,0.428107
0.04786377,1.1469642,0.16137283,-0.4545065,-0.05414894,-0.0360241,0.0,0.0,0,0.437009
0.049459267,1.1366422,0.16137281,-0.45882675,-0.05595013,-0.036024086,0.0,0.0,0,0.445937
0.051054765,1.126223,0.16137278,-0.46314704,-0.057751328,-0.036023997,0.0,0.0,0,0.454848
0.05265026,1.1157066,0.16137277,-0.4674673,-0.05955253,-0.036024004,0.0,0.0,0,0.463758
0.05424576,1.105093,0.16137275,-0.47178757,-0.06135373,-0.036023997,0.0,0.0,0,0.472676
0.055841256,1.0943822,0.1613727,-0.47610787,-0.06315493,-0.036023974,0.0,0.0,0,0.481561
0.057436753,1.0835744,0.16137269,-0.48042813,-0.06495613,-0.036023952,0.0,0.0,0,0.490468
0.05903225,1.0726693,0.16137266,-0.4847484,-0.06675733,-0.036023956,0.0,0.0,0,0.499353
0.060627747,1.0616671,0.16137263,-0.48906866,-0.06855854,-0.036023933,0.0,0.0,0,0.508217
0.062223244,1.0505679,0.16137262,-0.49338895,-0.07035973,-0.03602394,0.0,0.0,0,0.517114
0.06381874,1.0393713,0.16137257,-0.49770918,-0.07216094,-0.036023937,0.0,0.0,2,4.490122
0.06536789,1.0290922,0.15717241,-0.45696262,-0.074401766,-0.04481639,0.0,0.0,2,3.618616
0.067046545,1.0196816,0.16975392,-0.41834006,-0.076265775,-0.03728036,0.0,0.0,0,0.350422
0.0687253,1.010174,0.16975388,-0.42266032,-0.0781298,-0.03728036,0.0,0.0,0,0.359026
0.070403956,1.0005691,0.16975385,-0.42698058,-0.079993814,-0.037280347,0.0,0.0,0,0.367607
0.07208271,0.9908671,0.16975382,-0.43130085,-0.081857845,-0.037280325,0.0,0.0,0,0.376170
0.07376146,0.9810681,0.16975378,-0.43562114,-0.08372186,-0.0372803,0.0,0.0,0,0.384751
0.07544012,0.9711718,0.16975375,-0.43994144,-0.08558587,-0.0372803,0.0,0.0,0,0.393308
0.07711887,0.9611784,0.1697537,-0.44426173,-0.08744988,-0.0372803,0.0,0.0,0,0.401875
0.07879762,0.9510877,0.16975367,-0.448582,-0.08931387,-0.037280217,0.0,0.0,2,2.886541
0.08058729,0.9416827,0.180554,-0.4180952,-0.090881616,-0.031354934,0.0,0.0,2,4.664415
0.08228092,0.9332668,0.17170116,-0.37418118,-0.09319566,-0.04628079,0.0,0.0,2,3.971112
0.083987996,0.925821,0.17328674,-0.3310826,-0.09575408,-0.05116857,0.0,0.0,0,0.096290
0.08569498,0.9182784,0.17328665,-0.3354031,-0.098312505,-0.05116853,0.0,0.0,0,0.104306
0.08740206,0.91063845,0.17328656,-0.33972365,-0.10087093,-0.05116852,0.0,0.0,0,0.112318
0.08910904,0.90290135,0.17328647,-0.34404418,-0.10342934,-0.05116849,0.0,0.0,0,0.120320
0.09081612,0.89506733,0.1732864,-0.3483647,-0.10598775,-0.05116846,0.0,0.0,0,0.128354
0.092523195,0.887136,0.17328629,-0.35268524,-0.10854617,-0.05116843,0.0,0.0,0,0.136362
0.09423027,0.87910765,0.1732862,-0.35700575,-0.11110458,-0.051168412,0.0,0.0,0,0.144392
0.09593735,0.8709821,0.17328613,-0.3613263,-0.113662995,-0.0511684,0.0,0.0,2,3.101844
0.0975668,0.8635303,0.1661447,-0.33144087,-0.116848,-0.063700065,0.0,0.0,2,3.625307
0.09940901,0.85728496,0.18691802,-0.27778658,-0.11952336,-0.053507406,0.0,0.0,2,4.502217
0.10131683,0.8524833,0.19373426,-0.2136421,-0.12246425,-0.058817826,0.0,0.0,0,-0.152025
0.10322456,0.84758466,0.19373412,-0.21796282,-0.12540513,-0.058817785,0.0,0.0,0,-0.145935
0.1051323,0.84258884,0.19373398,-0.22228354,-0.12834601,-0.058817763,0.0,0.0,0,-0.139794
0.10704012,0.8374961,0.19373384,-0.22660425,-0.1312869,-0.058817733,0.0,0.0,0,-0.133567
0.10894785,0.8323062,0.1937337,-0.23092498,-0.13422777,-0.058817703,0.0,0.0,0,-0.127283
0.11085558,0.82701916,0.19373356,-0.23524569,-0.13716865,-0.058817666,0.0,0.0,0,-0.120958
0.112763405,0.8216352,0.19373342,-0.23956642,-0.14010951,-0.058817632,0.0,0.0,0,-0.114565
0.11467123,0.816154,0.19373326,-0.24388716,-0.14305039,-0.058817588,0.0,0.0,0,-0.108123
0.116579056,0.8105757,0.19373311,-0.24820788,-0.14599127,-0.058817558,0.0,0.0,0,-0.101651
0.11848688,0.80490047,0.19373295,-0.2525286,-0.14893214,-0.058817524,0.0,0.0,0,-0.095111
0.12039471,0.79912794,0.19373281,-0.25684932,-0.15187302,-0.058817476,0.0,0.0,0,-0.088576
0.12230253,0.79325855,0.19373265,-0.26117003,-0.1548139,-0.058817446,0.0,0.0,0,-0.081983
0.12421036,0.787292,0.19373247,-0.26549077,-0.15775476,-0.058817398,0.0,0.0,0,-0.075346
0.12611827,0.78122824,0.1937323,-0.26981148,-0.16069563,-0.058817357,0.0,0.0,0,-0.068726
0.1280262,0.77506757,0.19373213,-0.27413216,-0.16363648,-0.05881731,0.0,0.0,0,-0.062048
0.12993412,0.7688097,0.19373196,-0.27845284,-0.16657731,-0.05881729,0.0,0.0,0,-0.055387
0.13184194,0.76245475,0.1937318,-0.28277355,-0.16951817,-0.058817275,0.0,0.0,0,-0.048708
0.13374996,0.75600284,0.1937316,-0.28709424,-0.17245902,-0.05881726,0.0,0.0,0,-0.041998
0.13565788,0.7494537,0.19373141,-0.29141492,-0.17539988,-0.058817226,0.0,0.0,0,-0.035313
0.1375658,0.74280757,0.19373122,-0.29573563,-0.17834075,-0.0588172,0.0,0.0,0,-0.028605
0.13947383,0.73606414,0.19373104,-0.3000563,-0.18128161,-0.05881717,0.0,0.0,0,-0.021943
0.14138183,0.72922385,0.19373086,-0.304377,-0.18422247,-0.05881715,0.0,0.0,0,-0.015264
0.14328985,0.7222864,0.19373065,-0.30869767,-0.18716334,-0.058817096,0.0,0.0,0,-0.008585
0.14519787,0.71525174,0.19373044,-0.31301835,-0.19010417,-0.058817096,0.0,0.0,0,-0.001974
0.14710589,0.7081202,0.19373025,-0.31733903,-0.19304502,-0.058817096,0.0,0.0,0,0.004653
0.149014,0.70089144,0.19373003,-0.3216597,-0.19598587,-0.05881705,0.0,0.0,0,0.011205
0.15092202,0.6935658,0.19372983,-0.32598045,-0.19892673,-0.05881705,0.0,0.0,0,0.017764
0.15283012,0.68614286,0.19372961,-0.33030117,-0.20186758,-0.058817007,0.0,0.0,1,0.734747
0.1546648,0.6786421,0.18451029,-0.3335045,-0.20291506,-0.020949643,0.0,0.0,1,0.890830
0.15643434,0.6710754,0.17625731,-0.3362039,-0.20222008,0.013899744,0.0,0.0,1,1.039990
0.1581376,0.6634383,0.16790089,-0.33909914,-0.19977745,0.048852466,0.0,0.0,1,1.154658
0.15977374,0.655719,0.1594694,-0.34252623,-0.19561301,0.08328884,0.0,0.0,0,0.744041
0.16140985,0.64790285,0.15946895,-0.34684762,-0.19144858,0.08328877,0.0,0.0,0,0.750790
0.16304588,0.63998955,0.15946853,-0.35116905,-0.18728416,0.08328865,0.0,0.0,0,0.757436
0.164682,0.6319794,0.15946811,-0.35549048,-0.18311971,0.08328842,0.0,0.0,0,0.764029
0.16631813,0.6238721,0.1594677,-0.35981187,-0.17895529,0.08328833,0.0,0.0,1,1.464914
0.16787815,0.615699,0.14984924,-0.36252123,-0.17278689,0.12336806,0.0,0.0,1,1.639880
0.1693511,0.60744184,0.13893303,-0.36603495,-0.16441266,0.16748464,0.0,0.0,1,1.921890
0.17072725,0.5991058,0.12677601,-0.36933264,-0.15357348,0.21678337,0.0,0.0,0,1.446323
0.1721036,0.590674,0.12677366,-0.37366232,-0.1427344,0.21678169,0.0,0.0,0,1.452773
0.17348012,0.5821466,0.12677146,-0.37799203,-0.13189538,0.2167799,0.0,0.0,0,1.459107
0.17485675,0.57352346,0.12676944,-0.38232177,-0.121056475,0.21677816,0.0,0.0,0,1.465301
0.17623349,0.5648048,0.12676756,-0.38665152,-0.11021766,0.2167764,0.0,0.0,0,1.471361
0.1776104,0.5559904,0.12676585,-0.3909813,-0.09937893,0.21677467,0.0,0.0,1,2.022501
0.17890978,0.5470987,0.11701475,-0.39437738,-0.08656237,0.2563313,0.0,0.0,1,2.271008
0.18011789,0.53812826,0.10553338,-0.39787376,-0.07142823,0.3026825,0.0,0.0,0,1.913677
0.1813262,0.52906364,0.10553106,-0.4022129,-0.056294333,0.30267775,0.0,0.0,0,1.919247
0.1825346,0.5199049,0.105529204,-0.40655202,-0.041160706,0.30267295,0.0,0.0,0,1.924631
0.183743,0.510652,0.10552777,-0.41089115,-0.026027272,0.30266815,0.0,0.0,0,1.929775
0.18495159,0.5013049,0.10552678,-0.41523033,-0.010894112,0.3026634,0.0,0.0,0,1.086950
0.18616009,0.49186373,0.10552623,-0.41956952,0.0042388225,0.3026586,0.0,0.0,0,-1.087148
0.18736868,0.48232836,0.10552611,-0.42390868,0.019371519,0.30265382,0.0,0.0,0,-1.082695
0.18857718,0.47269887,0.10552643,-0.42824787,0.034503963,0.30264902,0.0,0.0,0,-1.078532
0.18978567,0.46297517,0.105527185,-0.43258703,0.049636174,0.30264428,0.0,0.0,0,-1.074691
0.19099398,0.45315737,0.10552837,-0.4369262,0.064768136,0.30263948,0.0,0.0,0,-1.071201
0.19220237,0.44324535,0.10552999,-0.44126529,0.07989985,0.30263472,0.0,0.0,0,-1.068082
0.19341049,0.43323913,0.10553205,-0.4456044,0.09503132,0.30262998,0.0,0.0,0,-1.065377
0.19461842,0.42313874,0.10553454,-0.44994348,0.11016257,0.3026252,0.0,0.0,0,-1.063131
0.19582605,0.4129442,0.10553746,-0.45428255,0.12529358,0.30262044,0.0,0.0,0,-1.061373
0.1970335,0.40265545,0.10554083,-0.45862156,0.14042436,0.30261567,0.0,0.0,0,-1.060150
0.19824067,0.3922725,0.10554463,-0.46296057,0.15555489,0.30261093,0.0,0.0,0,-1.059519
0.19944754,0.38179538,0.10554886,-0.46729955,0.17068517,0.30260617,0.0,0.0,0,-1.059519
0.20065394,0.37122405,0.10555351,-0.4716385,0.18581522,0.30260137,0.0,0.0,0,-1.060232
0.20186014,0.36055842,0.1055586,-0.47597733,0.20094503,0.3025966,0.0,0.0,0,-1.061728
0.20306578,0.34979877,0.10556412,-0.48031616,0.21607462,0.30259183,0.0,0.0,0,-1.064060
0.20427103,0.33894482,0.105570056,-0.48465493,0.23120396,0.30258703,0.0,0.0,0,-1.067330
0.2054758,0.3279967,0.10557642,-0.48899364,0.24633308,0.30258226,0.0,0.0,0,-1.071611
0.20668001,0.31695428,0.10558321,-0.49333227,0.26146194,0.3025775,0.0,0.0,0,-1.077038
0.20788383,0.3058176,0.10559042,-0.49767083,0.27659056,0.3025727,0.0,0.0,0,-1.083701
0.20908698,0.2945868,0.10559805,-0.50200933,0.29171893,0.30256793,0.0,0.0,0,-1.091721
0.21028967,0.2832616,0.105606094,-0.5063477,0.30684707,0.30256322,0.0,0.0,0,-1.101245
0.21149158,0.27184212,0.10561454,-0.51068604,0.321975,0.30255845,0.0,0.0,0,-1.112432
0.21269283,0.2603283,0.105623424,-0.5150243,0.33710268,0.30255368,0.0,0.0,0,-1.125441
0.2138935,0.24872018,0.10563271,-0.5193624,0.3522301,0.30254892,0.0,0.0,0,-1.140442
0.21509342,0.23701774,0.105642416,-0.5237005,0.36735728,0.30254418,0.0,0.0,0,-1.157630
0.21629258,0.22522081,0.105652526,-0.5280384,0.38248423,0.3025394,0.0,0.0,0,-1.177246
0.21749106,0.21332961,0.10566304,-0.5323762,0.39761093,0.30253464,0.0,0.0,0,-1.199474
0.21868877,0.201344,0.10567395,-0.536714,0.4127374,0.30252987,0.0,0.0,0,-1.224535
0.21988563,0.18926397,0.10568526,-0.5410516,0.42786363,0.30252513,0.0,0.0,0,-1.252711
0.22108164,0.17708953,0.105696976,-0.5453892,0.44298962,0.30252036,0.0,0.0,0,-1.284195
0.22227669,0.16482061,0.10570909,-0.5497266,0.4581154,0.30251566,0.0,0.0,0,-1.319249
0.22347097,0.15245719,0.10572161,-0.5540639,0.4732409,0.30251092,0.0,0.0,2,5.131454
0.22423354,0.14140657,0.06247563,-0.49592125,0.48857093,0.30660027,0.0,0.0,2,1.724339
0.22481509,0.1310189,0.044170223,-0.46671098,0.5042621,0.31382343,0.0,0.0,2,0.620684
0.22508936,0.12103322,0.013998029,-0.4488218,0.51945233,0.3038049,0.0,0.0,2,2.310897
0.22487688,0.111892544,-0.034116507,-0.41123068,0.53413016,0.29355687,0.0,0.0,2,1.901078
0.22415657,0.103652865,-0.08438088,-0.37115246,0.5483539,0.28447628,0.0,0.0,2,0.230039
0.2232213,0.09590801,-0.105862126,-0.3493166,0.5626806,0.2865338,0.0,0.0,2,-1.074891
0.221875,0.08853386,-0.14614105,-0.33264542,0.57616913,0.26977062,0.0,0.0,2,0.546596
0.22034654,0.081841715,-0.16475981,-0.30266842,0.59026015,0.28182083,0.0,0.0,2,-0.808652
0.21861315,0.07556771,-0.18522307,-0.28422892,0.60444826,0.28376162,0.0,0.0,2,-2.215065
0.21654435,0.06956449,-0.21813421,-0.27206007,0.6180043,0.27112135,0.0,0.0,2,-2.587256
0.21386433,0.06446043,-0.27870774,-0.23199193,0.63103694,0.26065254,0.0,0.0,0,8.821772
0.21118346,0.05926095,-0.2786953,-0.23632349,0.64406943,0.26064947,0.0,1.0,0,7.888832
0.20870057,0.056090865,-0.25148487,-0.14444444,0.6438035,-0.012789717,0.0,1.0,0,4.859185
0.20612803,0.05379718,-0.24351855,-0.09522554,0.6268259,-0.3397543,0.0,1.0,0,5.296426
0.20352049,0.052280914,-0.23577932,-0.05592339,0.5959204,-0.61933124,0.0,1.0,0,4.908217
0.20087938,0.051108822,-0.23149684,-0.037909187,0.55742776,-0.7699269,0.0,1.0,0,4.161204
0.19823189,0.04987987,-0.23103385,-0.041157406,0.51859283,-0.7767476,0.0,1.0,0,4.120057
0.19560508,0.04855636,-0.22927245,-0.046614174,0.48096967,-0.7524944,0.0,1.0,0,-6.029287
0.19297305,0.04715303,-0.22914788,-0.05101497,0.44335902,-0.75224394,0.0,0.0,0,3.963037
0.19033594,0.045670163,-0.22904046,-0.05541033,0.4057509,-0.7521935,0.0,0.0,0,3.956397
0.18769436,0.044108044,-0.22893341,-0.059811115,0.3681481,-0.752087,0.0,0.0,0,3.949406
0.18504858,0.04246689,-0.22882995,-0.064215094,0.3305507,-0.751979,0.0,0.0,0,3.942245
0.18239918,0.04074684,-0.22873084,-0.06862202,0.29295868,-0.7518714,0.0,0.0,0,3.934945
0.17974672,0.03894819,-0.22863626,-0.07303177,0.25537202,-0.7517642,0.0,0.0,0,3.912325
0.17709942,0.0370627,-0.22813448,-0.07786511,0.21819115,-0.7436181,0.0,0.0,0,3.873829
0.17444953,0.035097893,-0.22809377,-0.082297936,0.18101381,-0.7435474,0.0,0.0,0,3.866255
0.17179736,0.03305398,-0.22805934,-0.086731695,0.14383996,-0.7434777,0.0,0.0,0,3.858498
0.16914359,0.030931173,-0.22803125,-0.09116623,0.10666954,-0.7434088,0.0,0.0,0,3.850574
0.16648836,0.028729329,-0.22800961,-0.09560135,0.06950257,-0.7433399,0.0,0.0,0,3.842395
0.16383247,0.026448736,-0.2279944,-0.100036934,0.032339126,-0.7432695,0.0,0.0,0,2.869834
0.1611762,0.02408925,-0.22798559,-0.10447279,-0.004820792,-0.7431989,0.0,0.0,0,-3.605977
0.15852003,0.021650944,-0.22798327,-0.108908795,-0.041977186,-0.7431282,0.0,0.0,0,-3.614294
0.15586452,0.019133745,-0.22798741,-0.113344766,-0.07913004,-0.7430576,0.0,0.0,0,-3.622952
0.15320997,0.016537651,-0.22799797,-0.117780544,-0.11627936,-0.742987,0.0,0.0,0,-3.632029
0.15055685,0.013862596,-0.22801499,-0.12221598,-0.15342516,-0.7429164,0.0,0.0,0,9.787582
0.148133,0.011660752,-0.22410329,-0.09991256,-0.17148879,-0.36097905,1.0,0.0,0,1.717302
0.14596061,0.00989171,-0.2177939,-0.078731865,-0.17039052,0.022710709,1.0,0.0,0,3.346772
0.14403896,0.00852171,-0.21178754,-0.058764584,-0.15072607,0.3933272,1.0,0.0,0,3.872789
0.14226627,0.007368252,-0.2082823,-0.048430223,-0.11978238,0.6189334,1.0,0.0,0,3.573086
0.14052744,0.006202457,-0.20760827,-0.049466074,-0.086262986,0.6704535,1.0,0.0,0,3.193627
0.13876934,0.0049268696,-0.20852986,-0.05513155,-0.053859506,0.64809686,1.0,0.0,0,-6.706671
0.13701096,0.0035676693,-0.20859918,-0.05955546,-0.021486,0.6474967,0.0,0.0,0,1.112345
0.1352458,0.0021147346,-0.20889875,-0.06442084,0.0104855215,0.6394306,0.0,0.0,0,6.847187
0.13348055,0.0005782223,-0.20889954,-0.06882664,0.042454794,0.6393857,0.0,1.0,0,-0.261577
0.1316677,-0.0004963064,-0.20072977,-0.048829496,0.06024591,0.3539675,0.0,1.0,0,1.459042
0.12972231,-0.0010163689,-0.19356361,-0.023082262,0.059246372,-0.020038519,0.0,1.0,0,2.465174
0.12768392,-0.0011155033,-0.18798341,-0.003863003,0.04354405,-0.31408164,0.0,1.0,0,2.752921
0.12560196,-0.0010598921,-0.1852461,0.002981777,0.020850204,-0.45390373,0.0,1.0,0,2.158493
0.12352476,-0.0011019493,-0.18504678,-0.0017123682,-0.0015574227,-0.4481891,0.0,1.0,0,10.501905
0.121713445,-0.0007330203,-0.17947042,0.01639509,-0.0031893617,-0.03263851,1.0,1.0,0,0.126554
0.119910434,-0.00044341327,-0.17931063,0.012869331,-0.0041740923,-0.01969429,1.0,1.0,0,-9.822338
0.118114755,-0.00023455858,-0.17916416,0.009283572,-0.004561075,-0.007739791,1.0,0.0,0,0.229585
0.11632681,-0.00010631323,-0.1790175,0.005698838,-0.004349696,0.0042277076,1.0,0.0,0,0.281517
0.1145463,-5.8784484e-05,-0.17887083,0.002114022,-0.003539937,0.016195178,1.0,0.0,0,0.333340
0.112773225,-9.197235e-05,-0.17872442,-0.0014719741,-0.0021324197,0.028150344,1.0,0.0,0,-9.690743
0.111000255,-0.00022232771,-0.17872441,-0.005792141,-0.00072488404,0.02815055,0.0,0.0,0,0.138816
0.10923071,-0.000441339,-0.1786816,-0.009735352,0.0009772211,0.034042194,0.0,0.0,0,10.519310
0.10747566,-0.00044348478,-0.17550632,-9.4274495e-05,0.0009794172,4.3011554e-05,0.0,1.0,0,0.269813
0.10573015,-0.00044198276,-0.17455521,6.556221e-05,0.0009778979,-2.9902169e-05,0.0,1.0,0,0.263921
0.10399361,-0.00044198276,-0.17365259,1.5354357e-06,0.0009778552,-6.977751e-07,0.0,1.0,0,0.264316
0.102266215,-0.00044198276,-0.1727368,-4.2597057e-07,0.0009778676,1.9775246e-07,0.0,1.0,0,0.263433
0.100547984,-0.00044198276,-0.17182067,-1.7603817e-08,0.0009778697,5.5386877e-09,0.0,1.0,0,0.262555
0.0988389,-0.00044198276,-0.17090419,6.669588e-09,0.0009778716,9.967638e-10,0.0,1.0,0,0.261631
0.09713898,-0.00044198276,-0.16998777,6.7767227e-09,0.0009778735,-5.611839e-10,0.0,1.0,0,0.260706
0.0954483,-0.00044198276,-0.16907136,6.7508754e-09,0.000977876,5.2841685e-12,0.0,1.0,0,0.259791
0.093766786,-0.00044198276,-0.16815495,6.340484e-09,0.0009778779,5.1633653e-10,0.0,1.0,0,0.258875
0.09209442,-0.00044198276,-0.16723855,5.561605e-09,0.0009778799,1.356171e-09,0.0,1.0,0,0.257960
0.09043121,-0.00044198276,-0.16632214,4.5700648e-09,0.0009778824,-2.368775e-10,0.0,1.0,0,0.257044
0.08877716,-0.00044198276,-0.16540572,2.4165157e-09,0.0009778845,4.305625e-09,0.0,1.0,0,0.256128
0.08713226,-0.00044198276,-0.16448931,5.688262e-10,0.0009778871,2.266102e-10,0.0,1.0,0,0.255213
0.08549652,-0.00044198276,-0.1635729,-1.4606839e-09,0.0009778889,-5.6175875e-10,0.0,1.0,3,-8.665314
0.08398209,-0.0004424119,-0.15144004,-1.7889593e-05,0.0009783122,8.154308e-06,0.0,0.0,3,1.043957
0.08256082,-0.0004424119,-0.14212173,9.877374e-07,0.0009782884,-4.5812985e-07,0.0,0.0,3,1.195770
0.08124904,-0.0004423404,-0.13117583,1.607632e-06,0.0009782513,-7.342496e-07,0.0,0.0,3,1.339962
0.08006239,-0.00044248343,-0.11866273,-5.124937e-06,0.0009783674,2.3323078e-06,0.0,0.0,0,0.209637
0.07888498,-0.0004423404,-0.11774389,5.750401e-06,0.0009782244,-2.6187e-06,0.0,0.0,0,0.208373
0.07771673,-0.0004423404,-0.1168284,1.1319819e-07,0.0009782215,-5.2963014e-08,0.0,0.0,0,0.207514
0.076557636,-0.0004423404,-0.11591233,-3.7977006e-08,0.0009782236,1.6575417e-08,0.0,0.0,3,0.939197
0.075484656,-0.0004424119,-0.10729325,-2.5295517e-06,0.0009783,1.1481156e-06,0.0,0.0,3,1.291003
0.07453432,-0.0004424119,-0.09503351,-1.2858162e-06,0.000978324,5.768817e-07,0.0,0.0,0,0.185877
0.07359314,-0.0004423404,-0.09411599,3.77861e-06,0.0009782428,-1.7219747e-06,0.0,0.0,0,0.184776
0.07266112,-0.0004423404,-0.093200244,6.026935e-08,0.0009782418,-3.2321473e-08,0.0,0.0,0,0.183909
0.07173824,-0.0004423404,-0.092284,-2.5241002e-08,0.0009782437,1.3835766e-08,0.0,0.0,3,1.194315
0.07092972,-0.00044248343,-0.08084923,-5.3988974e-06,0.0009783668,2.4615094e-06,0.0,0.0,3,1.236626
0.070240974,-0.0004424119,-0.068871744,2.0408013e-06,0.0009783257,-9.3714226e-07,0.0,0.0,0,0.159638
0.069561385,-0.0004423404,-0.06795501,3.348906e-06,0.0009782477,-1.5259571e-06,0.0,0.0,0,0.158626
0.06889095,-0.0004423404,-0.06703917,3.219137e-08,0.0009782476,-1.1244639e-08,0.0,0.0,0,0.157742
0.06822977,-0.0004423404,-0.06612292,-2.3475957e-08,0.000978249,4.790414e-09,0.0,0.0,0,0.156841
0.06757774,-0.0004423404,-0.06520651,-6.625271e-09,0.000978251,8.7232366e-10,0.0,0.0,0,0.155927
0.06693487,-0.0004423404,-0.0642901,6.0490066e-09,0.0009782522,9.768043e-10,0.0,0.0,0,0.155012
0.06630115,-0.0004423404,-0.063373685,6.974467e-09,0.0009782533,1.3437366e-10,0.0,0.0,0,0.154096
0.06567659,-0.0004423404,-0.06245727,6.994194e-09,0.0009782545,1.8677464e-10,0.0,0.0,0,0.153181
0.06506119,-0.0004423404,-0.061540853,6.16111e-09,0.0009782556,1.08879e-09,0.0,0.0,0,0.152265
0.064454935,-0.0004423404,-0.060624443,3.5495231e-09,0.0009782567,-3.3166743e-09,0.0,0.0,0,0.151349
0.06385784,-0.0004423404,-0.059708036,1.0922284e-09,0.0009782588,4.1987116e-09,0.0,0.0,0,0.150433
0.0632699,-0.0004423404,-0.058791626,-1.4473921e-09,0.0009782598,-1.3172351e-09,0.0,0.0,0,0.149518
0.062691115,-0.0004423404,-0.057875216,-3.859699e-09,0.0009782617,-2.1318547e-09,0.0,0.0,0,0.148602
0.06212149,-0.0004423404,-0.056958806,-5.8713296e-09,0.0009782627,-1.2702984e-09,0.0,0.0,0,0.147677
0.061561108,-0.0004423404,-0.056042396,-6.9389907e-09,0.0009782639,-2.7378788e-10,0.0,0.0,0,0.146762
0.061009884,-0.0004423404,-0.05512598,-6.4719217e-09,0.0009782651,-4.8284204e-10,0.0,0.0,0,0.145847
0.060467817,-0.0004423404,-0.054209568,-5.8901932e-09,0.0009782661,-1.2713202e-09,0.0,0.0,0,0.144931
0.059934903,-0.0004423404,-0.05329315,-5.220704e-09,0.0009782672,-1.3796804e-09,0.0,0.0,0,0.144016
0.059411146,-0.0004423404,-0.052376736,-3.5816912e-09,0.0009782617,2.7950342e-09,0.0,0.0,3,0.978887
0.058983993,-0.0004424119,-0.042714953,-1.8191732e-06,0.0009783139,8.294084e-07,0.0,0.0,3,0.882149
0.058644675,-0.0004424119,-0.033932775,2.6827735e-07,0.0009783088,-1.2302618e-07,0.0,0.0,0,0.124691
0.058314513,-0.0004424119,-0.03301606,1.5431622e-06,0.0009782728,-7.0321767e-07,0.0,0.0,0,0.123716
0.05799351,-0.0004424119,-0.0320999,2.008648e-08,0.0009782738,-1.2865462e-09,0.0,0.0,0,0.122817
0.057681657,-0.0004424119,-0.031183567,-1.1006707e-08,0.0009782757,1.3510677e-08,0.0,0.0,0,0.121909
0.05737896,-0.0004424119,-0.03026716,-6.896087e-09,0.0009782775,2.0086696e-10,0.0,0.0,0,0.120994
0.057085417,-0.0004424119,-0.029350748,-3.2146619e-09,0.0009782785,-4.259773e-09,0.0,0.0,0,0.120079
0.056801032,-0.0004424119,-0.028434336,3.7513548e-10,0.0009782796,-8.500242e-10,0.0,0.0,0,0.119155
0.056525897,-0.0004424119,-0.027517924,3.7257424e-09,0.0009782732,-2.0965918e-09,0.0,0.0,0,0.118238
0.05625992,-0.0004424119,-0.026601512,3.8246166e-09,0.0009782817,-3.0832221e-09,0.0,0.0,0,0.117323
0.056003094,-0.0004424119,-0.025685102,2.9132783e-09,0.0009782757,4.6437916e-09,0.0,0.0,0,0.116406
0.055755425,-0.0004424119,-0.024768692,5.798399e-10,0.0009782832,-2.1495268e-08,0.0,0.0,0,0.115492
0.05551691,-0.0004424119,-0.023852283,-2.2374957e-09,0.0009782776,-1.2434824e-09,0.0,0.0,0,0.114575
0.05528755,-0.0004424119,-0.022935873,-4.671845e-09,0.0009782861,-2.4158928e-09,0.0,0.0,0,0.113661
0.05506735,-0.0004424119,-0.022019463,-5.4052416e-09,0.0009782807,6.1987865e-10,0.0,0.0,0,0.112744
0.0548563,-0.0004424119,-0.02110305,-4.776683e-09,0.0009782892,-2.5915523e-09,0.0,0.0,0,0.111830
0.05465441,-0.0004424119,-0.02018664,-3.727822e-09,0.000978283,2.748187e-09,0.0,0.0,0,0.110913
0.05446167,-0.0004424119,-0.01927023,-2.6535427e-09,0.0009782915,-1.3640808e-09,0.0,0.0,0,0.109999
0.054278087,-0.0004424119,-0.018353818,-4.0501874e-10,0.0009782863,2.2062576e-08,0.0,0.0,0,0.109073
0.054103754,-0.0004424119,-0.017437408,1.7750127e-09,0.0009782951,3.9066026e-09,0.0,0.0,0,0.108159
0.05393858,-0.0004424119,-0.016520996,3.012942e-09,0.0009782898,4.4393276e-09,0.0,0.0,0,0.107242
0.05378256,-0.0004424119,-0.015604585,2.6852656e-09,0.0009782981,-3.8253054e-09,0.0,0.0,0,0.106328
0.053635694,-0.0004424119,-0.014688174,1.6564913e-09,0.0009782928,4.5478044e-09,0.0,0.0,0,0.105411
0.05349798,-0.0004424119,-0.013771763,-4.3949575e-12,0.0009783002,-2.3874668e-08,0.0,0.0,0,0.104497
0.053369425,-0.0004424119,-0.012855354,-6.1865213e-10,0.000978295,2.167004e-08,0.0,0.0,0,0.103580
0.053250026,-0.0004424119,-0.0119389435,-7.778376e-10,0.0009783029,-1.5126153e-08,0.0,0.0,0,0.102666
0.053139783,-0.0004424119,-0.011022533,-1.8557648e-09,0.0009782972,1.2783859e-08,0.0,0.0,0,0.101749
0.053038694,-0.0004424119,-0.010106123,-1.5511642e-09,0.000978305,-1.5188258e-08,0.0,0.0,0,0.100835
0.052946758,-0.0004424119,-0.009189713,-1.6211769e-09,0.0009783001,1.3674186e-08,0.0,0.0,0,0.099918
0.052863978,-0.0004424119,-0.008273303,-4.2482132e-10,0.0009783095,1.6254171e-08,0.0,0.0,0,0.098993
0.05279045,-0.0004424119,-0.0073568923,1.7478233e-10,0.0009783122,1.6949325e-08,0.0,0.0,0,0.098078
0.05272608,-0.0004424119,-0.0064404816,1.0379118e-09,0.0009783141,1.3022178e-08,0.0,0.0,0,0.097162
0.05267086,-0.0004424119,-0.005524071,1.8158539e-09,0.0009783156,8.142982e-09,0.0,0.0,0,0.096248
0.0526248,-0.0004424119,-0.00460766,2.7674585e-09,0.0009783097,6.4403203e-09,0.0,0.0,0,0.095331
0.05258789,-0.0004424119,-0.0036912498,2.5304951e-09,0.0009783176,-1.4572282e-08,0.0,0.0,0,0.094417
0.05256014,-0.0004424119,-0.0027748395,1.4428693e-09,0.0009783113,-1.5001293e-08,0.0,0.0,0,0.093500
0.052541543,-0.0004424119,-0.0018584293,3.9616246e-10,0.0009783183,-1.8670185e-08,0.0,0.0,0,0.092585
0.0525321,-0.0004424119,-0.0009420193,-1.549502e-10,0.0009783144,2.1967455e-08,0.0,0.0,0,0.091669
0.052531816,-0.0004424119,-2.5608786e-05,-6.5055844e-10,0.0009783214,-1.7639708e-08,0.0,0.0,0,-0.026581
0.052534677,-0.0004424119,0.00029291332,3.9094283e-07,0.000973961,-8.4586616e-05,0.0,0.0,0,0.009322
0.052536678,-0.0004424119,0.0002006763,2.7042591e-07,0.00097097654,-5.7952613e-05,0.0,0.0,0,0.016523
0.05253706,-0.0004424119,3.558824e-05,4.750331e-08,0.00097045396,-1.0278765e-05,0.0,0.0,0,-0.000715
0.052536678,-0.0004424119,-4.2498876e-05,-5.6980586e-08,0.0009710733,1.2274666e-05,0.0,0.0,0,0.000271
0.052536298,-0.0004424119,-3.9573504e-05,-5.3130027e-08,0.0009716673,1.1427827e-05,0.0,0.0,0,0.002747
0.0525362,-0.0004424119,-1.2027494e-05,-1.6274026e-08,0.00097183645,3.473942e-06,0.0,0.0,0,0.000693
0.052536298,-0.0004424119,5.092835e-06,6.9602275e-09,0.0009717462,-1.47078e-06,0.0,0.0,0,-0.000218
0.05253639,-0.0004424119,7.2901757e-06,9.983997e-09,0.0009716358,-2.103272e-06,0.0,0.0,0,0.000421
0.05253639,-0.0004424119,3.1133543e-06,4.448454e-09,0.00097159884,-9.0079794e-07,0.0,0.0,0,0.000276
0.05253639,-0.0004424119,-3.510637e-07,-3.9999754e-10,0.00097160146,1.1649136e-07,0.0,0.0,0,-0.000092
0.05253639,-0.0004424119,-1.2529155e-06,-1.862269e-09,0.0009716182,3.6960023e-07,0.0,0.0,0,0.000054
0.05253639,-0.0004424119,-7.0862103e-07,-7.9113854e-10,0.0009716266,2.1633771e-07,0.0,0.0,0,0.000065
0.05253639,-0.0004424119,-5.3584635e-08,-5.207932e-12,0.0009716318,1.815467e-08,0.0,0.0,0,-0.000014
0.05253639,-0.0004424119,1.9964061e-07,3.3890166e-10,0.00097162504,-5.7249643e-08,0.0,0.0,0,0.000006
0.05253639,-0.0004424119,1.5017562e-07,1.5618802e-10,0.00097161916,-5.410295e-08,0.0,0.0,0,0.000012
0.05253639,-0.0004424119,3.3943735e-08,-2.4561225e-11,0.0009716135,-2.1382146e-08,0.0,0.0,0,0.000001
0.05253639,-0.0004424119,-2.842189e-08,1.1857523e-11,0.0009716113,1.968421e-08,0.0,0.0,0,0.000000
0.05253639,-0.0004424119,-3.112966e-08,-3.034057e-11,0.0009716077,1.9610507e-08,0.0,0.0,0,0.000002
0.05253639,-0.0004424119,-1.5156578e-08,-9.663971e-13,0.00097160554,2.0914262e-08,0.0,0.0,0,0.000002
0.05253639,-0.0004424119,-1.9816264e-09,2.0030179e-10,0.00097160274,7.304441e-09,0.0,0.0,0,-0.000000
0.05253639,-0.0004424119,9.425869e-09,4.099201e-11,0.0009715969,-2.4282912e-08,0.0,0.0,0,100
0.0026000023,1.4186058,0.263339,0.34158894,-0.0030059793,-0.0596502,0.0,0.0,0,-0.769274
0.0052001,1.4262162,0.2629829,0.3382321,-0.00595347,-0.05895433,0.0,0.0,0,-0.710417
0.007800293,1.4337304,0.2629921,0.3339488,-0.008899338,-0.05892239,0.0,0.0,0,-0.699513
0.010400581,1.4411473,0.2630008,0.3296243,-0.011844804,-0.05891466,0.0,0.0,0,-0.692056
0.013000965,1.4484671,0.2630095,0.32530126,-0.014789807,-0.058905445,0.0,0.0,0,-0.684585
0.015601349,1.4556899,0.26301822,0.32097897,-0.01773433,-0.058895934,0.0,0.0,0,-0.677091
0.018201923,1.4628155,0.26302692,0.3166568,-0.020678384,-0.05888629,0.0,0.0,0,-0.669614
0.020802498,1.4698441,0.2630356,0.31233454,-0.02362197,-0.05887703,0.0,0.0,0,-0.662178
0.023403168,1.4767755,0.2630442,0.3080122,-0.026565079,-0.05886758,0.0,0.0,0,-0.654789
0.026004028,1.4836098,0.26305282,0.30368978,-0.02950774,-0.058858354,0.0,0.0,0,-0.647442
0.028604984,1.4903469,0.26306137,0.2993673,-0.03244992,-0.058849074,0.0,0.0,0,-0.640141
0.031205941,1.4969869,0.26306993,0.29504475,-0.03539166,-0.05883988,0.0,0.0,0,-0.632900
0.03380699,1.5035299,0.26307842,0.29072216,-0.03833294,-0.058830608,0.0,0.0,0,-0.625674
0.036408234,1.5099757,0.26308692,0.28639945,-0.041273724,-0.058821477,0.0,0.0,0,-0.618538
0.03900957,1.5163244,0.26309538,0.28207675,-0.044214103,-0.058812737,0.0,0.0,0,-0.611417
0.041610908,1.5225759,0.26310378,0.27775398,-0.047154017,-0.058803774,0.0,0.0,0,-0.604365
0.044212244,1.5287303,0.26311216,0.27343118,-0.0500935,-0.058794893,0.0,0.0,0,-0.597366
0.046813775,1.5347874,0.2631205,0.2691083,-0.053032536,-0.058786035,0.0,0.0,0,-0.590422
0.0494154,1.5407475,0.26312882,0.26478535,-0.05597114,-0.058777146,0.0,0.0,0,-0.583539
0.052017115,1.5466105,0.26313707,0.2604623,-0.0589093,-0.0587684,0.0,0.0,0,-0.576712
0.054618932,1.5523763,0.26314533,0.25613922,-0.06184701,-0.05875957,0.0,0.0,0,-0.569952
0.05722084,1.558045,0.26315352,0.2518161,-0.0647843,-0.058750927,0.0,0.0,0,-0.563233
0.05982294,1.5636164,0.2631617,0.24749286,-0.06772114,-0.058742188,0.0,0.0,0,-0.556615
0.06242485,1.5690908,0.26316983,0.24316962,-0.070657566,-0.05873365,0.0,0.0,0,-0.550028
0.065026954,1.574468,0.2631779,0.2388463,-0.07359354,-0.058724947,0.0,0.0,0,-0.470255
0.0676281,1.5797268,0.26307923,0.23357177,-0.07652945,-0.058718033,0.0,0.0,0,-0.535205
0.07022925,1.5848885,0.26307914,0.22925106,-0.079465345,-0.058717914,0.0,0.0,0,-0.528897
0.07283048,1.5899528,0.26307908,0.22493033,-0.08240123,-0.058717787,0.0,0.0,0,-0.522675
0.07543163,1.5949203,0.263079,0.22060962,-0.085337125,-0.05871765,0.0,0.0,0,-0.516514
0.07803278,1.5997906,0.26307887,0.2162889,-0.088273,-0.05871754,0.0,0.0,0,-0.510445
0.08063392,1.604564,0.26307878,0.21196818,-0.09120887,-0.05871748,0.0,0.0,0,-0.504444
0.08323517,1.6092402,0.2630787,0.20764746,-0.09414476,-0.05871738,0.0,0.0,0,-0.498531
0.08583631,1.6138194,0.2630786,0.20332672,-0.09708062,-0.058717288,0.0,0.0,0,-0.492693
0.08843756,1.6183014,0.2630785,0.199006,-0.10001648,-0.05871729,0.0,0.0,0,-0.486921
0.0910388,1.6226863,0.2630784,0.19468528,-0.10295236,-0.05871725,0.0,0.0,0,-0.481276
0.093640044,1.6269742,0.26307827,0.19036457,-0.10588822,-0.058717214,0.0,0.0,0,-0.475680
0.09624128,1.6311649,0.26307815,0.18604384,-0.108824074,-0.05871717,0.0,0.0,0,-0.470197
0.098842524,1.6352586,0.26307803,0.18172312,-0.11175994,-0.058717124,0.0,0.0,0,-0.464810
0.10144377,1.6392553,0.26307794,0.17740242,-0.1146958,-0.058717094,0.0,0.0,0,-0.459482
0.10404501,1.6431547,0.26307786,0.17308171,-0.11763166,-0.05871703,0.0,0.0,0,-0.454272
0.106646255,1.6469572,0.2630777,0.168761,-0.12056752,-0.058717,0.0,0.0,0,-0.449147
0.10924759,1.6506624,0.2630776,0.16444026,-0.12350338,-0.05871697,0.0,0.0,0,-0.444128
0.11184883,1.6542708,0.26307744,0.16011953,-0.12643923,-0.05871691,0.0,0.0,0,-0.439186
0.11445017,1.6577818,0.26307735,0.15579882,-0.12937509,-0.058716886,0.0,0.0,0,-0.434359
0.117051505,1.6611959,0.2630772,0.1514781,-0.13231093,-0.058716863,0.0,0.0,0,-0.429639
0.119652845,1.664513,0.26307708,0.1471574,-0.13524678,-0.058716804,0.0,0.0,0,-0.424985
0.12225418,1.6677327,0.26307693,0.14283668,-0.13818263,-0.05871675,0.0,0.0,0,-0.420477
0.12485552,1.6708558,0.26307678,0.13851596,-0.14111847,-0.058716737,0.0,0.0,0,-0.416026
0.12745686,1.6738814,0.26307663,0.13419524,-0.14405431,-0.058716707,0.0,0.0,0,-0.411692
0.13005829,1.6768099,0.26307648,0.12987451,-0.14699015,-0.058716655,0.0,0.0,0,-0.407468
0.13265963,1.6796415,0.26307634,0.1255538,-0.14992598,-0.058716632,0.0,0.0,0,-0.403340
0.13526106,1.6823759,0.2630762,0.12123309,-0.15286182,-0.058716588,0.0,0.0,0,-0.399317
0.13786249,1.6850133,0.263076,0.11691238,-0.15579765,-0.058716558,0.0,0.0,0,-0.395390
0.14046392,1.6875536,0.26307583,0.11259166,-0.15873349,-0.058716528,0.0,0.0,0,-0.391569
0.14306526,1.689997,0.26307565,0.10827095,-0.1616693,-0.058716495,0.0,0.0,0,-0.387842
0.1456666,1.6923431,0.26307547,0.10395023,-0.16460513,-0.05871647,0.0,0.0,0,-0.384195
0.14826803,1.694592,0.2630753,0.099629514,-0.16754095,-0.058716446,0.0,0.0,0,-0.380689
0.15086937,1.6967441,0.2630751,0.095308796,-0.17047676,-0.058716416,0.0,0.0,0,-0.377238
0.1534708,1.6987989,0.26307493,0.090988085,-0.17341258,-0.05871638,0.0,0.0,0,-0.373907
0.15607223,1.7007567,0.2630748,0.08666738,-0.17634837,-0.058716364,0.0,0.0,0,-0.370656
0.15867367,1.7026174,0.26307458,0.08234667,-0.17928419,-0.058716338,0.0,0.0,0,-0.367495
0.1612751,1.7043809,0.2630744,0.07802596,-0.18222,-0.058716305,0.0,0.0,0,-0.364435
0.16387653,1.7060474,0.26307422,0.07370525,-0.1851558,-0.05871626,0.0,0.0,0,-0.361448
0.16647807,1.7076168,0.26307398,0.06938454,-0.1880916,-0.05871623,0.0,0.0,0,-0.358556
0.16907959,1.7090893,0.26307377,0.06506382,-0.1910274,-0.058716208,0.0,0.0,0,-0.355732
0.17168112,1.7104646,0.26307356,0.060743116,-0.19396321,-0.058716167,0.0,0.0,0,-0.352965
0.17428264,1.7117426,0.26307335,0.05642241,-0.196899,-0.058716137,0.0,0.0,0,-0.350319
0.17688417,1.7129238,0.26307315,0.052101698,-0.19983481,-0.0587161,0.0,0.0,0,-0.347694
0.17948571,1.7140076,0.2630729,0.047780994,-0.2027706,-0.058716096,0.0,0.0,0,-0.345164
0.18208733,1.7149945,0.2630727,0.043460287,-0.2057064,-0.05871606,0.0,0.0,0,-0.342679
0.18468896,1.7158843,0.2630725,0.03913958,-0.2086422,-0.058716048,0.0,0.0,0,-0.340278
0.18729058,1.7166773,0.26307228,0.03481887,-0.211578,-0.05871599,0.0,0.0,0,-0.337870
0.1898922,1.7173728,0.26307207,0.030498164,-0.2145138,-0.05871596,0.0,0.0,0,-0.335549
0.19249383,1.7179713,0.26307184,0.026177458,-0.21744959,-0.0587159,0.0,0.0,0,-0.333274
0.19509554,1.7184728,0.2630716,0.021856753,-0.22038539,-0.058715872,0.0,0.0,0,-0.331019
0.19769725,1.7188773,0.2630714,0.017536048,-0.2233212,-0.05871583,0.0,0.0,0,-0.328789
0.20029898,1.7191845,0.26307118,0.013215345,-0.22625698,-0.058715813,0.0,0.0,0,-0.326598
0.2029007,1.7193948,0.2630709,0.008894642,-0.22919278,-0.05871578,0.0,0.0,0,-0.324405
0.20550242,1.7195078,0.2630707,0.0045739394,-0.23212856,-0.058715742,0.0,0.0,0,-0.322249
0.20810422,1.7195239,0.26307046,0.00025323688,-0.23506434,-0.05871571,0.0,0.0,0,-0.320088
0.21070604,1.7194427,0.26307023,-0.004067465,-0.23800012,-0.05871569,0.0,0.0,0,-0.317942
0.21330786,1.7192646,0.26306996,-0.008388165,-0.2409359,-0.05871564,0.0,0.0,0,-0.315780
0.21590967,1.7189894,0.2630697,-0.012708867,-0.2438717,-0.058715593,0.0,0.0,0,-0.313608
0.21851149,1.7186171,0.2630694,-0.017029567,-0.24680747,-0.058715545,0.0,0.0,0,-0.311427
0.2211134,1.7181475,0.2630691,-0.021350268,-0.24974325,-0.0587155,0.0,0.0,0,-0.309237
0.2237153,1.717581,0.26306883,-0.025670968,-0.25267902,-0.05871548,0.0,0.0,0,-0.307010
0.22631721,1.7169175,0.26306853,-0.029991666,-0.2556148,-0.058715455,0.0,0.0,0,-0.304772
0.22891922,1.7161568,0.2630683,-0.034312367,-0.25855055,-0.05871542,0.0,0.0,0,-0.302474
0.23152113,1.7152991,0.26306802,-0.038633067,-0.26148632,-0.058715384,0.0,0.0,0,-0.300143
0.23412314,1.7143443,0.26306772,-0.04295377,-0.2644221,-0.058715332,0.0,0.0,0,-0.297769
0.23672514,1.7132922,0.26306745,-0.047274467,-0.26735786,-0.058715284,0.0,0.0,0,-0.295354
0.23932724,1.7121433,0.26306716,-0.051595163,-0.27029362,-0.058715254,0.0,0.0,0,-0.292862
0.24192925,1.710897,0.26306686,-0.05591586,-0.2732294,-0.058715217,0.0,0.0,0,-0.290353
0.24453135,1.709554,0.26306656,-0.060236555,-0.27616516,-0.058715165,0.0,0.0,0,-0.287740
0.24713334,1.7081136,0.26306623,-0.06455725,-0.27910092,-0.058715127,0.0,0.0,0,-0.285092
0.24973536,1.7065761,0.26306593,-0.06887794,-0.2820367,-0.058715068,0.0,0.0,0,-0.282361
0.25233746,1.7049416,0.26306564,-0.07319865,-0.28497243,-0.058715034,0.0,0.0,0,-0.279559
0.25493956,1.70321,0.2630653,-0.077519335,-0.28790817,-0.058715004,0.0,0.0,0,-0.276698
0.25754166,1.7013814,0.263065,-0.08184003,-0.2908439,-0.058714975,0.0,0.0,0,-0.273745
0.26014376,1.6994556,0.26306468,-0.08616071,-0.29377964,-0.05871495,0.0,0.0,0,-0.270730
0.26274595,1.6974329,0.26306438,-0.090481415,-0.29671538,-0.058714945,0.0,0.0,0,-0.267603
0.26534814,1.6953129,0.2630641,-0.09480211,-0.29965112,-0.058714908,0.0,0.0,0,-0.264422
0.26795036,1.6930959,0.26306376,-0.0991228,-0.30258685,-0.058714867,0.0,0.0,0,-0.261143
0.27055255,1.6907817,0.26306346,-0.10344349,-0.3055226,-0.058714855,0.0,0.0,0,-0.257776
0.27315482,1.6883705,0.26306313,-0.10776417,-0.30845833,-0.05871483,0.0,0.0,0,-0.254355
0.27575713,1.6858623,0.2630628,-0.112084866,-0.31139407,-0.05871482,0.0,0.0,0,-0.250785
0.2783594,1.6832569,0.26306248,-0.11640556,-0.3143298,-0.058714785,0.0,0.0,0,-0.247170
0.2809618,1.6805543,0.26306212,-0.12072625,-0.31726554,-0.058714747,0.0,0.0,0,-0.243470
0.28356418,1.6777548,0.2630618,-0.12504694,-0.32020128,-0.05871471,0.0,0.0,0,-0.239664
0.28616658,1.6748581,0.26306146,-0.12936763,-0.32313702,-0.05871468,0.0,0.0,0,-0.235766
0.28876895,1.6718644,0.2630611,-0.13368829,-0.32607275,-0.05871465,0.0,0.0,0,-0.231788
0.29137143,1.6687734,0.26306075,-0.13800898,-0.3290085,-0.05871465,0.0,0.0,0,-0.227731
0.29397392,1.6655855,0.26306042,-0.14232966,-0.33194423,-0.058714617,0.0,0.0,0,-0.223567
0.2965764,1.6623006,0.26306003,-0.14665034,-0.33487996,-0.058714587,0.0,0.0,0,-0.219325
0.299179,1.6589184,0.26305968,-0.15097103,-0.3378157,-0.05871453,0.0,0.0,0,-0.214993
0.30178156,1.6554391,0.26305932,-0.15529172,-0.34075144,-0.05871446,0.0,0.0,0,-0.210589
0.30438414,1.6518629,0.26305896,-0.1596124,-0.34368718,-0.05871445,0.0,0.0,0,-0.206101
0.3069868,1.6481895,0.2630586,-0.16393308,-0.34662288,-0.05871441,0.0,0.0,0,-0.201502
0.30958948,1.644419,0.26305825,-0.16825375,-0.3495586,-0.058714367,0.0,0.0,0,-0.196835
0.31219214,1.6405513,0.2630579,-0.17257443,-0.3524943,-0.058714353,0.0,0.0,0,-0.192104
0.31479484,1.6365867,0.2630575,-0.17689511,-0.35543,-0.0587143,0.0,0.0,0,-0.187283
0.3173976,1.6325248,0.2630571,-0.1812158,-0.3583657,-0.05871429,0.0,0.0,0,-0.182395
0.32000026,1.6283661,0.26305673,-0.18553647,-0.36130142,-0.058714252,0.0,0.0,0,-0.177421
0.32260305,1.6241102,0.26305634,-0.18985717,-0.36423713,-0.058714233,0.0,0.0,0,-0.172356
0.3252057,1.6197569,0.26305598,-0.19417784,-0.36717284,-0.05871422,0.0,0.0,0,-0.167265
0.32780847,1.615307,0.26305556,-0.1984985,-0.37010854,-0.0587142,0.0,0.0,0,-0.162065
0.33041134,1.6107596,0.26305515,-0.20281918,-0.37304425,-0.05871416,0.0,0.0,0,-0.156822
0.3330142,1.6061153,0.26305476,-0.20713986,-0.37597996,-0.05871413,0.0,0.0,0,-0.151501
0.33561707,1.6013739,0.26305434,-0.21146053,-0.37891567,-0.0587141,0.0,0.0,0,-0.146131
0.33821994,1.5965354,0.26305395,-0.2157812,-0.38185138,-0.058714055,0.0,0.0,0,-0.140676
0.34082288,1.5915998,0.26305357,-0.22010188,-0.38478708,-0.058713995,0.0,0.0,0,-0.135184
0.34342584,1.5865672,0.26305315,-0.22442256,-0.3877228,-0.058713965,0.0,0.0,0,-0.129623
0.3460289,1.5814373,0.26305276,-0.22874323,-0.3906585,-0.058713935,0.0,0.0,0,-0.124004
0.34863186,1.5762104,0.2630523,-0.23306389,-0.3935942,-0.05871389,0.0,0.0,0,-0.118351
0.351235,1.5708864,0.2630519,-0.23738456,-0.39652988,-0.058713835,0.0,0.0,0,-0.112631
0.35383806,1.5654653,0.26305145,-0.24170522,-0.39946556,-0.058713783,0.0,0.0,0,-0.106867
0.3564412,1.5599471,0.26305103,-0.24602589,-0.40240124,-0.058713757,0.0,0.0,0,-0.101055
0.35904437,1.5543318,0.26305062,-0.25034657,-0.40533692,-0.058713723,0.0,0.0,0,-0.095215
0.3616476,1.5486195,0.26305017,-0.25466722,-0.4082726,-0.058713663,0.0,0.0,0,-0.089316
0.36425084,1.5428101,0.26304972,-0.25898787,-0.41120827,-0.058713626,0.0,0.0,0,-0.083381
0.3668541,1.5369035,0.26304927,-0.26330853,-0.41414395,-0.058713567,0.0,0.0,0,-0.077426
0.36945742,1.5308999,0.26304883,-0.26762918,-0.41707963,-0.058713518,0.0,0.0,0,-0.071414
0.37206078,1.5247992,0.26304835,-0.2719498,-0.42001528,-0.05871319,0.0,0.0,0,-0.065365
0.37466413,1.5186012,0.2630479,-0.27627045,-0.42295092,-0.058713157,0.0,0.0,0,-0.059325
0.37726754,1.5123065,0.26304746,-0.28059107,-0.42588657,-0.058713127,0.0,0.0,0,-0.053214
0.3798709,1.5059143,0.263047,-0.2849117,-0.42882222,-0.058713097,0.0,0.0,0,-0.047111
0.38247433,1.4994252,0.26304653,-0.28923234,-0.43175787,-0.058713056,0.0,0.0,0,-0.040970
0.38507777,1.492839,0.2630461,-0.293553,-0.43469352,-0.05871302,0.0,0.0,0,-0.034822
0.3876812,1.4861557,0.26304564,-0.29787365,-0.43762916,-0.05871295,0.0,0.0,0,-0.028625
0.39028472,1.4793754,0.2630452,-0.30219427,-0.4405648,-0.058712937,0.0,0.0,0,-0.022441
0.39288825,1.4724978,0.26304471,-0.3065149,-0.44350046,-0.05871291,0.0,0.0,0,-0.016237
0.3954919,1.4655232,0.26304427,-0.31083554,-0.4464361,-0.058712892,0.0,0.0,0,-0.010015
0.39809543,1.4584515,0.26304382,-0.3151562,-0.44937176,-0.05871284,0.0,0.0,0,-0.003800
0.40069914,1.4512827,0.26304337,-0.3194768,-0.4523074,-0.05871279,0.0,0.0,0,0.002439
0.40330276,1.4440169,0.2630429,-0.32379743,-0.45524305,-0.05871274,0.0,0.0,0,0.008685
0.4059066,1.4366539,0.26304242,-0.32811812,-0.4581787,-0.058712672,0.0,0.0,0,0.014918
0.4085103,1.4291937,0.26304194,-0.33243877,-0.46111432,-0.05871264,0.0,0.0,0,0.021145
0.41111413,1.4216366,0.26304144,-0.3367594,-0.46404994,-0.05871261,0.0,0.0,0,0.027381
0.41371793,1.4139824,0.26304096,-0.34108,-0.46698555,-0.05871256,0.0,0.0,0,0.033622
0.41632184,1.4062308,0.26304045,-0.34540063,-0.46992117,-0.058712512,0.0,0.0,0,0.039813
0.41892576,1.3983824,0.26304,-0.34972125,-0.4728568,-0.058712482,0.0,0.0,0,0.046034
0.42152977,1.3904369,0.2630395,-0.3540419,-0.4757924,-0.05871244,0.0,0.0,0,0.052219
0.42413378,1.3823942,0.263039,-0.35836253,-0.47872803,-0.058712382,0.0,0.0,0,0.058397
0.4267378,1.3742545,0.2630385,-0.36268318,-0.48166364,-0.058712345,0.0,0.0,0,0.064557
0.42934188,1.3660176,0.26303798,-0.3670038,-0.48459926,-0.05871231,0.0,0.0,0,0.070694
0.4319459,1.3576835,0.2630375,-0.37132445,-0.48753488,-0.058712266,0.0,0.0,0,0.076798
0.43455,1.3492526,0.26303703,-0.37564504,-0.4904705,-0.05871225,0.0,0.0,0,0.082880
0.4371541,1.3407245,0.2630365,-0.3799657,-0.49340612,-0.05871222,0.0,0.0,0,0.088937
0.4397583,1.3320992,0.26303598,-0.38428628,-0.49634174,-0.058712203,0.0,0.0,0,0.094954
0.4423625,1.3233768,0.26303548,-0.38860694,-0.49927735,-0.058712166,0.0,0.0,0,0.100939
0.4449667,1.3145573,0.26303497,-0.39292756,-0.5022129,-0.058712117,0.0,0.0,0,0.106887
0.44757098,1.3056407,0.26303443,-0.3972482,-0.5051485,-0.058712076,0.0,0.0,0,0.112769
0.4501753,1.2966272,0.26303393,-0.4015688,-0.50808406,-0.058712047,0.0,0.0,0,0.118636
0.45277968,1.2875164,0.26303336,-0.40588942,-0.51101965,-0.058712013,0.0,0.0,0,0.124429
0.45538408,1.2783086,0.26303285,-0.41021004,-0.51395524,-0.058711987,0.0,0.0,0,0.130194
0.45798856,1.2690036,0.26303232,-0.41453066,-0.5168908,-0.058711935,0.0,0.0,1,1.105342
0.46051854,1.2596586,0.25359696,-0.41555902,-0.5175694,-0.013571806,0.0,0.0,1,1.186102
0.4629883,1.2502722,0.24586391,-0.416755,-0.51631814,0.025025476,0.0,0.0,1,1.641785
0.46537894,1.2408634,0.2357202,-0.41690823,-0.51252294,0.075904004,0.0,0.0,1,1.640452
0.46770564,1.2314123,0.22754261,-0.41814062,-0.5067285,0.115889415,0.0,0.0,1,2.086045
0.46995372,1.2219424,0.21737912,-0.4181619,-0.4983658,0.16725352,0.0,0.0,1,1.968302
0.47214547,1.2124231,0.21015918,-0.4198399,-0.48825586,0.2021986,0.0,0.0,1,2.217705
0.4742753,1.2028613,0.20217113,-0.42119187,-0.47620687,0.24097975,0.0,0.0,1,2.516903
0.47633266,1.193263,0.19283558,-0.4222231,-0.46192646,0.28560817,0.0,0.0,1,2.451784
0.4783326,1.1836007,0.18552668,-0.42472175,-0.44602922,0.3179447,0.0,0.0,1,2.974589
0.48024875,1.1739054,0.17471974,-0.42562887,-0.42762294,0.36812523,0.0,0.0,1,3.021919
0.48209208,1.1641598,0.16536418,-0.42751116,-0.40712982,0.4098626,0.0,0.0,1,3.251665
0.48386413,1.1543735,0.15605941,-0.4290356,-0.384507,0.45245662,0.0,0.0,1,3.276976
0.48557273,1.1445264,0.14785546,-0.43164408,-0.36011872,0.4877656,0.0,0.0,1,3.413313
0.48721972,1.1346161,0.13985273,-0.4344357,-0.33402732,0.5218287,0.0,0.0,1,3.579118
0.4888029,1.1246431,0.13157006,-0.437302,-0.30618912,0.55676425,0.0,0.0,1,3.891313
0.49031296,1.1146268,0.12197443,-0.4393378,-0.27625868,0.5986096,0.0,0.0,1,4.022210
0.49175462,1.1045631,0.11298637,-0.4416947,-0.24439467,0.6372804,0.0,0.0,1,4.084241
0.4931407,1.0944465,0.105620906,-0.4444972,-0.21096165,0.66866034,0.0,0.0,0,3.786126
0.49452877,1.0842471,0.10558901,-0.44890833,-0.17753124,0.6686089,0.0,0.0,0,3.790338
0.49591857,1.0739653,0.10556171,-0.45332012,-0.14410341,0.66855747,0.0,0.0,0,3.794487
0.49730977,1.063601,0.10553904,-0.4577325,-0.110678144,0.668506,0.0,0.0,0,3.798555
0.49870196,1.0531542,0.105521,-0.46214527,-0.07725544,0.6684546,0.0,0.0,0,3.802528
0.5000949,1.0426252,0.10550763,-0.46655843,-0.043835297,0.66840315,0.0,0.0,0,3.806415
0.5014882,1.0320137,0.105498925,-0.47097185,-0.010417733,0.6683517,0.0,0.0,0,-0.789254
0.5028817,1.0213199,0.1054949,-0.47538534,0.022997258,0.6683003,0.0,0.0,0,-2.868590
0.50427496,1.0105436,0.10549557,-0.4797989,0.056409683,0.6682489,0.0,0.0,0,-2.864480
0.5056677,0.99968505,0.105500914,-0.4842124,0.08981952,0.6681975,0.0,0.0,0,-2.860471
0.5070594,0.9887441,0.10551097,-0.48862568,0.1232268,0.6681462,0.0,0.0,0,-2.856578
0.50844985,0.9777207,0.10552567,-0.49303868,0.15663148,0.66809475,0.0,0.0,0,-2.852795
0.5098387,0.9666148,0.10554503,-0.4974513,0.19003363,0.6680435,0.0,0.0,0,-2.849126
0.5112256,0.95542616,0.10556903,-0.5018634,0.22343323,0.66799223,0.0,0.0,2,3.298137
0.5123023,0.9455129,0.0752467,-0.44584188,0.2563694,0.6587237,0.0,0.0,2,3.471217
0.5132682,0.93704385,0.06374653,-0.38249066,0.29001305,0.6728734,0.0,0.0,2,-0.425044
0.5139822,0.9290849,0.039452143,-0.36043116,0.32307392,0.661219,0.0,0.0,2,-0.774200
0.5143961,0.921569,0.010557714,-0.34125906,0.35534617,0.64544535,0.0,0.0,2,1.932376
0.51434344,0.91519475,-0.03509369,-0.2910012,0.38692218,0.6315203,0.0,0.0,0,-3.028161
0.5142875,0.9087356,-0.035048373,-0.29539916,0.41849598,0.63147694,0.0,0.0,0,-3.021277
0.51422775,0.9021913,-0.034999393,-0.29979613,0.45006767,0.6314336,0.0,0.0,0,-3.014419
0.51416427,0.8955619,-0.034946788,-0.30419204,0.48163715,0.6313902,0.0,0.0,0,-3.007554
0.5140966,0.8888469,-0.034890622,-0.30858675,0.51320446,0.6313468,0.0,0.0,0,-3.000728
0.51402473,0.8820462,-0.034830954,-0.3129803,0.54476964,0.63130355,0.0,0.0,0,-2.993883
0.5139481,0.8751596,-0.03476782,-0.3173725,0.5763326,0.6312603,0.0,0.0,0,-2.987103
0.5138666,0.868187,-0.03470132,-0.3217634,0.60789347,0.6312169,0.0,0.0,0,-2.980335
0.5137801,0.86112815,-0.03463149,-0.32615283,0.63945216,0.6311736,0.0,0.0,2,-0.970959
0.51344526,0.85460544,-0.059061654,-0.30296025,0.67125285,0.6360143,0.0,0.0,2,-1.331818
0.5129293,0.8485746,-0.076893985,-0.28183928,0.70352584,0.64545983,0.0,0.0,2,-2.705982
0.5121419,0.8428087,-0.103200495,-0.27048475,0.7355616,0.64071494,0.0,0.0,2,-2.671075
0.5109912,0.83750194,-0.1387423,-0.25055724,0.7675011,0.6387905,0.0,0.0,0,-3.053159
0.5098343,0.83210766,-0.13865472,-0.2549399,0.7994384,0.63874555,0.0,0.0,0,-3.046781
0.5086708,0.82662565,-0.1385642,-0.25932068,0.83137345,0.6387007,0.0,0.0,0,-3.040326
0.50750065,0.82105553,-0.13847081,-0.2636995,0.86330616,0.6386559,0.0,0.0,0,-3.033831
0.5063235,0.81539714,-0.13837467,-0.2680763,0.89523673,0.638611,0.0,0.0,0,-3.027250
0.50513935,0.8096499,-0.13827586,-0.27245098,0.92716503,0.63856614,0.0,0.0,3,-1.868669
0.50400144,0.8039283,-0.13115688,-0.27015072,0.9562323,0.581345,0.0,0.0,3,-1.720476
0.5029088,0.79821455,-0.12448095,-0.26868674,0.98274016,0.5301576,0.0,0.0,3,-1.617171
0.501857,0.7924929,-0.118597806,-0.26803672,1.0070301,0.48579916,0.0,0.0,3,-1.238067
0.5008402,0.7867916,-0.113207914,-0.26581573,1.0286528,0.43245345,0.0,0.0,3,-0.928800
0.4998621,0.7811136,-0.10751067,-0.2632955,1.0474725,0.3763932,0.0,0.0,0,-1.743473
0.49888134,0.7753408,-0.10747224,-0.2676306,1.0662917,0.37638408,0.0,0.0,0,-1.736771
0.4978978,0.76947314,-0.10743339,-0.27196524,1.0851104,0.3763749,0.0,0.0,0,-1.730063
0.49691144,0.76351047,-0.10739414,-0.27629942,1.1039287,0.37636572,0.0,0.0,0,-1.723352
0.49592227,0.75745255,-0.1073545,-0.2806331,1.1227465,0.37635654,0.0,0.0,0,-1.716688
0.49493027,0.7512996,-0.10731448,-0.2849663,1.1415639,0.37634736,0.0,0.0,3,-0.878359
0.4939641,0.745145,-0.10349794,-0.28376567,1.1581671,0.3320635,0.0,0.0,3,-0.694833
0.49302834,0.73898137,-0.0993661,-0.28292233,1.1726525,0.28970787,0.0,0.0,3,-0.318970
0.49211818,0.7328343,-0.095630094,-0.28062865,1.184546,0.23786926,0.0,0.0,3,-0.317213
0.49122554,0.7266757,-0.093025036,-0.279953,1.1944957,0.1989946,0.0,0.0,3,-0.133717
0.49034768,0.7205059,-0.09073001,-0.27925244,1.2025137,0.16036001,0.0,0.0,3,0.418295
0.4895011,0.71436226,-0.08653081,-0.27630207,1.2076688,0.10310261,0.0,0.0,0,-0.365814
0.48865423,0.7081215,-0.086527675,-0.28062284,1.2128239,0.10310241,0.0,0.0,0,-0.359339
0.48780718,0.7017838,-0.08652453,-0.2849436,1.217979,0.10310222,0.0,0.0,0,-0.352900
0.48695993,0.6953489,-0.086521395,-0.28926435,1.223134,0.103102006,0.0,0.0,0,-0.346515
0.48611242,0.6888169,-0.08651824,-0.29358512,1.2282891,0.103101805,0.0,0.0,3,0.547829
0.48529083,0.6822916,-0.08308447,-0.29175246,1.231026,0.054739494,0.0,0.0,3,0.917880
0.48450422,0.67578566,-0.078652,-0.2891429,1.2310017,-0.00048621543,0.0,0.0,3,0.959977
0.48374024,0.6692761,-0.07565138,-0.28790715,1.2288003,-0.044028714,0.0,0.0,3,1.265817
0.48300618,0.6627716,-0.07182946,-0.28615654,1.224184,-0.09232613,0.0,0.0,3,1.548454
0.4823057,0.65627635,-0.0675582,-0.2841396,1.217028,-0.1431192,0.0,0.0,3,1.951015
0.48164386,0.6498083,-0.06260154,-0.28107473,1.206914,-0.2022816,0.0,0.0,3,2.242494
0.481007,0.64337456,-0.058888685,-0.27769673,1.1938198,-0.26188403,0.0,0.0,0,1.447049
0.4803688,0.6368446,-0.058868535,-0.28202197,1.1807257,-0.26188093,0.0,0.0,0,1.453032
0.4797291,0.63021815,-0.05884849,-0.28634736,1.1676317,-0.26187783,0.0,0.0,0,1.458872
0.479088,0.6234956,-0.058828555,-0.2906729,1.154538,-0.26187474,0.0,0.0,0,1.464643
0.47844562,0.6166766,-0.058808725,-0.29499865,1.1414444,-0.2618717,0.0,0.0,0,1.470297
0.4778018,0.6097615,-0.058789015,-0.29932454,1.128351,-0.2618686,0.0,0.0,0,1.475810
0.47715673,0.6027501,-0.058769427,-0.30365065,1.1152577,-0.26186553,0.0,0.0,3,2.145121
0.47653684,0.5957203,-0.05523085,-0.30339196,1.1003006,-0.2991436,0.0,0.0,3,2.660822
0.47595614,0.5887101,-0.049803022,-0.300934,1.0825701,-0.35461015,0.0,0.0,3,2.766213
0.4754018,0.5817052,-0.045750722,-0.29942906,1.0625165,-0.4010728,0.0,0.0,3,2.954542
0.474881,0.5746982,-0.04088871,-0.2983289,1.0402014,-0.4463016,0.0,0.0,0,2.381701
0.47435617,0.5675973,-0.040834215,-0.3026697,1.0178872,-0.44628626,0.0,0.0,0,2.386467
0.47382775,0.56040287,-0.040780433,-0.30701134,0.9955737,-0.44627094,0.0,0.0,0,2.391074
0.4732956,0.55311483,-0.04072738,-0.31135377,0.97326094,-0.44625562,0.0,0.0,0,2.395524
0.47275972,0.5457333,-0.04067509,-0.31569698,0.95094895,-0.44624034,0.0,0.0,0,2.399782
0.47222033,0.5382584,-0.040623598,-0.32004097,0.9286377,-0.44622502,0.0,0.0,0,2.403841
0.47167748,0.5306903,-0.040572915,-0.32438567,0.9063272,-0.44620967,0.0,0.0,0,2.407732
0.47113115,0.52302897,-0.040523075,-0.32873112,0.88401747,-0.44619435,0.0,0.0,0,2.411392
0.47058135,0.51527476,-0.04047411,-0.33307734,0.8617085,-0.4461791,0.0,0.0,0,2.414846
0.47002822,0.50742763,-0.04042603,-0.33742425,0.83940035,-0.4461638,0.0,0.0,2,2.816108
0.46895695,0.49984646,-0.091342404,-0.3254509,0.81632614,-0.46148467,0.0,0.0,2,2.989537
0.46725768,0.49289533,-0.15348008,-0.29752722,0.7928985,-0.46855387,0.0,0.0,2,1.751411
0.46480885,0.4868431,-0.22787067,-0.25771797,0.7692275,-0.47341934,0.0,0.0,0,2.656202
0.46235657,0.48069906,-0.22782096,-0.26207146,0.7455574,-0.47340107,0.0,0.0,0,2.659441
0.45990095,0.4744634,-0.22777243,-0.26642573,0.7218883,-0.4733828,0.0,0.0,0,2.662655
0.457442,0.46813604,-0.22772512,-0.27078077,0.6982201,-0.47336453,0.0,0.0,0,2.665796
0.45498,0.4617172,-0.22767909,-0.27513656,0.67455274,-0.4733463,0.0,0.0,0,2.668881
0.45251483,0.455207,-0.22763436,-0.27949303,0.65088636,-0.47332796,0.0,0.0,0,2.671910
0.45004663,0.44860548,-0.22759092,-0.28385022,0.62722087,-0.4733097,0.0,0.0,0,2.674839
0.44757557,0.4419129,-0.22754881,-0.28820807,0.6035563,-0.47329146,0.0,0.0,2,1.647440
0.44445878,0.43629408,-0.29146585,-0.24064332,0.57948345,-0.48145667,0.0,0.0,0,2.753513
0.44133902,0.4305844,-0.2914251,-0.24500386,0.55541164,-0.48143744,0.0,0.0,0,2.756200
0.4382166,0.42478418,-0.29138583,-0.249365,0.5313408,-0.4814182,0.0,0.0,0,2.758865
0.4350915,0.4188934,-0.29134804,-0.25372675,0.5072709,-0.481399,0.0,0.0,0,2.761488
0.43196392,0.41291222,-0.2913118,-0.25808913,0.4832019,-0.4813798,0.0,0.0,0,2.764072
0.42883396,0.40684068,-0.29127708,-0.26245204,0.45913386,-0.48136058,0.0,0.0,0,2.766602
0.4257018,0.40067875,-0.2912439,-0.26681554,0.4350668,-0.48134136,0.0,0.0,0,2.769080
0.42256746,0.39442664,-0.29121232,-0.27117953,0.41100067,-0.48132214,0.0,0.0,0,2.771482
0.41943103,0.3880844,-0.29118234,-0.275544,0.38693556,-0.48130298,0.0,0.0,0,2.773803
0.41629276,0.38165212,-0.291154,-0.27990893,0.36287138,-0.48128372,0.0,0.0,0,2.776054
0.4131526,0.37512982,-0.29112726,-0.28427428,0.33880815,-0.48126453,0.0,0.0,0,2.778185
0.4100109,0.36851764,-0.29110217,-0.28864008,0.31474587,-0.48124534,0.0,0.0,0,2.780235
0.4068675,0.36181557,-0.29107875,-0.29300627,0.29068458,-0.48122612,0.0,0.0,0,2.782149
0.40372267,0.3550237,-0.291057,-0.2973728,0.26662424,-0.48120695,0.0,0.0,0,2.783936
0.4005765,0.3481421,-0.29103693,-0.30173966,0.24256484,-0.48118776,0.0,0.0,0,2.785580
0.39742908,0.3411707,-0.29101858,-0.30610687,0.21850643,-0.48116857,0.0,0.0,0,2.787069
0.3942806,0.33410954,-0.29100192,-0.31047428,0.19444896,-0.48114935,0.0,0.0,2,4.993606
0.39088544,0.32838744,-0.31528965,-0.25132003,0.1701297,-0.48638588,0.0,0.0,2,2.894900
0.3871955,0.32363185,-0.3438733,-0.20867808,0.14502425,-0.50210965,0.0,0.0,2,3.773821
0.38334972,0.32005012,-0.3592202,-0.15691838,0.11977358,-0.5050138,0.0,0.0,0,2.879321
0.37950325,0.31637952,-0.35920963,-0.16129163,0.094524,-0.50499165,0.0,0.0,0,2.880659
0.3756563,0.31262013,-0.35920104,-0.16566505,0.06927554,-0.5049695,0.0,0.0,0,2.882020
0.3718091,0.30877197,-0.35919452,-0.1700386,0.044028178,-0.5049473,0.0,0.0,2,3.999834
0.36797017,0.30563307,-0.3584798,-0.13895051,0.018930249,-0.5019587,0.0,0.0,2,1.779986
0.3640112,0.30365533,-0.3699903,-0.08776852,-0.00664764,-0.5115577,0.0,0.0,0,-2.224723
0.3600522,0.30158916,-0.36998984,-0.09214364,-0.03222437,-0.51153463,0.0,0.0,0,-2.224058
0.3560935,0.29943445,-0.3699915,-0.096518755,-0.057799947,-0.5115115,0.0,0.0,0,-2.223322
0.35213518,0.29719126,-0.36999527,-0.10089382,-0.08337436,-0.51148844,0.0,0.0,0,-2.222508
0.34817725,0.29485947,-0.37000114,-0.1052688,-0.10894762,-0.51146543,0.0,0.0,0,-2.221640
0.34421986,0.2924392,-0.37000915,-0.10964366,-0.13451973,-0.5114423,0.0,0.0,0,-2.220703
0.34026337,0.28993028,-0.37001926,-0.11401836,-0.16009067,-0.51141924,0.0,0.0,0,-2.219706
0.33630782,0.28733283,-0.37003142,-0.11839287,-0.18566047,-0.5113962,0.0,0.0,0,-2.218624
0.3323533,0.28464663,-0.3700457,-0.12276717,-0.21122909,-0.51137316,0.0,0.0,0,-2.217498
0.32840005,0.2818718,-0.37006205,-0.1271412,-0.23679657,-0.51135004,0.0,0.0,0,-2.216291
0.3244481,0.27900818,-0.37008044,-0.13151492,-0.2623629,-0.51132697,0.0,0.0,1,-2.996730
0.32040825,0.27608943,-0.38135162,-0.13393894,-0.28556117,-0.46396512,0.0,0.0,1,-2.682138
0.31628656,0.27311942,-0.3918532,-0.13611574,-0.30651143,-0.41900533,0.0,0.0,1,-2.360186
0.31209117,0.27010497,-0.40139508,-0.13791838,-0.3253511,-0.37679312,0.0,0.0,1,-2.100432
0.30782622,0.26704383,-0.41037703,-0.13976707,-0.34218645,-0.33670706,0.0,0.0,0,-1.297749
0.30356216,0.26388896,-0.4103888,-0.14410962,-0.35902148,-0.33670047,0.0,0.0,0,-1.295570
0.29929885,0.2606405,-0.41040117,-0.14845206,-0.3758562,-0.33669385,0.0,0.0,0,-1.293335
0.2950365,0.25729832,-0.41041404,-0.15279438,-0.39269054,-0.3366873,0.0,0.0,1,-1.905897
0.2907009,0.25390172,-0.41977113,-0.15484104,-0.4074642,-0.2954735,0.0,0.0,1,-1.533639
0.28630963,0.25044918,-0.42695016,-0.15700546,-0.42059436,-0.26260337,0.0,0.0,1,-1.445802
0.28185043,0.24695171,-0.435664,-0.15853874,-0.43170106,-0.22213356,0.0,0.0,0,-0.688966
0.2773919,0.24335855,-0.43567044,-0.1628682,-0.44280764,-0.2221317,0.0,0.0,0,-0.686226
0.27293366,0.2396697,-0.435677,-0.16719764,-0.45391417,-0.22212985,0.0,0.0,0,-0.683455
0.268476,0.23588513,-0.43568373,-0.171527,-0.46502057,-0.22212799,0.0,0.0,0,-0.680643
0.26401883,0.23200479,-0.43569064,-0.17585634,-0.4761269,-0.2221261,0.0,0.0,0,-0.677795
0.2595622,0.22802876,-0.4356977,-0.18018562,-0.48723313,-0.22212422,0.0,0.0,0,-0.674894
0.25510597,0.22395696,-0.4357049,-0.18451485,-0.49833924,-0.22212234,0.0,0.0,0,-0.671991
0.25065032,0.21978937,-0.43571234,-0.18884403,-0.50944525,-0.2221204,0.0,0.0,0,-0.669052
0.24619512,0.21552601,-0.4357199,-0.19317316,-0.5205512,-0.22211854,0.0,0.0,1,-1.062287
0.24168663,0.21120502,-0.44250965,-0.19526164,-0.53005815,-0.19013873,0.0,0.0,1,-0.993014
0.23710223,0.20686848,-0.4523777,-0.19511713,-0.53700674,-0.13897188,0.0,0.0,1,-0.597786
0.23246488,0.2024869,-0.45920643,-0.19654568,-0.5422213,-0.10429152,0.0,0.0,0,-0.049449
0.22782764,0.1980084,-0.4592082,-0.20086767,-0.5474359,-0.10429132,0.0,0.0,0,-0.046281
0.2231905,0.19343312,-0.45920998,-0.20518965,-0.55265045,-0.104291126,0.0,0.0,0,-0.043107
0.21855345,0.18876086,-0.45921177,-0.20951161,-0.557865,-0.10429094,0.0,0.0,0,-0.039939
0.21391658,0.18399169,-0.45921355,-0.21383356,-0.56307954,-0.10429076,0.0,0.0,0,-0.036811
0.20927982,0.17912565,-0.4592154,-0.21815552,-0.56829405,-0.10429058,0.0,0.0,0,-0.033708
0.20464325,0.17416278,-0.45921722,-0.22247745,-0.57350856,-0.1042904,0.0,0.0,1,-0.355200
0.19995642,0.16915019,-0.46564093,-0.22409606,-0.5770889,-0.071606174,0.0,0.0,1,-0.303477
0.19519787,0.1641118,-0.47483435,-0.22437148,-0.5782928,-0.02407764,0.0,0.0,1,-0.160544
0.19035654,0.15904362,-0.48529544,-0.22474857,-0.57692885,0.027278066,0.0,0.0,0,0.655962
0.18551512,0.15387827,-0.48529553,-0.22906871,-0.575565,0.02727803,0.0,0.0,0,0.658958
0.1806738,0.14861578,-0.48529562,-0.23338884,-0.5742011,0.027277887,0.0,0.0,0,0.661873
0.17583236,0.14325608,-0.4852957,-0.23770897,-0.57283723,0.027277881,0.0,0.0,2,5.941717
0.17147169,0.13846901,-0.43786845,-0.21198544,-0.57072484,0.042247638,0.0,0.0,2,2.466292
0.16721249,0.13425459,-0.42711157,-0.18679883,-0.56933254,0.027845541,0.0,0.0,2,6.871561
0.16348906,0.13096441,-0.3738588,-0.14558153,-0.5675503,0.035644855,0.0,0.0,0,0.521768
0.15976572,0.1275771,-0.37385905,-0.14990178,-0.56576806,0.03564485,0.0,0.0,0,0.523779
0.15604238,0.12409259,-0.37385926,-0.154222,-0.5639858,0.03564482,0.0,0.0,2,4.647075
0.15261717,0.121638045,-0.3434573,-0.10870062,-0.56289494,0.02181785,0.0,0.0,2,5.205281
0.14959574,0.12022212,-0.3028305,-0.062640585,-0.5620928,0.016042847,0.0,0.0,2,3.663542
0.14688635,0.119641334,-0.2713612,-0.025633918,-0.561601,0.009836495,0.0,0.0,0,0.257675
0.14417696,0.118963346,-0.27136123,-0.029953934,-0.5611092,0.009836372,0.0,0.0,0,0.256381
0.14146757,0.118188225,-0.27136123,-0.034273956,-0.5606174,0.009836504,0.0,0.0,0,0.255227
0.13875827,0.11731583,-0.2713613,-0.038593974,-0.5601256,0.009836391,0.0,0.0,0,0.254235
0.13604888,0.1163463,-0.2713613,-0.042913996,-0.5596338,0.009836463,0.0,0.0,0,0.253381
0.1333395,0.115279496,-0.27136132,-0.047234017,-0.559142,0.009836459,0.0,0.0,0,0.252662
0.13063021,0.114115626,-0.27136138,-0.05155404,-0.55865014,0.009836583,0.0,0.0,0,0.252101
0.12792082,0.11285456,-0.2713614,-0.05587406,-0.55815834,0.009836478,0.0,0.0,0,0.251698
0.12521143,0.11149622,-0.27136144,-0.060194083,-0.5576665,0.009836566,0.0,0.0,0,0.251412
0.12250213,0.11004075,-0.2713615,-0.0645141,-0.5571746,0.009836561,0.0,0.0,0,0.251292
0.119792745,0.10848807,-0.27136153,-0.06883411,-0.55668277,0.009836692,0.0,0.0,0,0.251306
0.117083356,0.10683819,-0.2713616,-0.07315414,-0.5561909,0.009836656,0.0,0.0,0,0.251461
0.114374064,0.105091035,-0.27136162,-0.07747416,-0.55569905,0.009836715,0.0,0.0,0,0.251755
0.111664675,0.10324675,-0.27136165,-0.08179418,-0.5552072,0.009836728,0.0,0.0,0,0.252185
0.10895529,0.101305254,-0.2713617,-0.08611419,-0.55471534,0.009836835,0.0,0.0,0,0.252740
0.106245995,0.09926656,-0.27136177,-0.090434216,-0.5542235,0.0098367985,0.0,0.0,0,0.253438
0.103536606,0.09713066,-0.2713618,-0.094754234,-0.5537316,0.0098369615,0.0,0.0,0,0.254246
0.100827314,0.09489757,-0.27136186,-0.099074244,-0.55323976,0.009836885,0.0,0.0,0,0.255186
0.098117925,0.092567265,-0.2713619,-0.10339427,-0.5527479,0.0098370295,0.0,0.0,1,-0.240608
0.095341966,0.090194255,-0.27979976,-0.10456493,-0.55019367,0.05108469,0.0,0.0,1,0.069814
0.09251337,0.08776661,-0.28647542,-0.10642371,-0.546014,0.08359293,0.0,0.0,1,0.225917
0.08962927,0.08529125,-0.29356724,-0.10794408,-0.5400716,0.1188486,0.0,0.0,0,0.828467
0.08674526,0.08271905,-0.2935695,-0.11226664,-0.5341292,0.1188483,0.0,0.0,0,0.829939
0.08386145,0.08005007,-0.2935718,-0.116589196,-0.5281868,0.11884798,0.0,0.0,0,0.831506
0.08097782,0.07728425,-0.29357406,-0.12091176,-0.5222444,0.11884765,0.0,0.0,0,0.833137
0.078094386,0.07442165,-0.2935763,-0.12523435,-0.51630205,0.11884737,0.0,0.0,0,0.834850
0.07521095,0.07146228,-0.29357854,-0.12955694,-0.5103597,0.118847094,0.0,0.0,0,0.836588
0.07232781,0.068406135,-0.2935807,-0.13387953,-0.50441736,0.11884681,0.0,0.0,0,0.838354
0.06944485,0.065253146,-0.29358295,-0.13820213,-0.49847504,0.11884656,0.0,0.0,0,0.840136
0.06656189,0.062003385,-0.2935851,-0.14252475,-0.49253273,0.1188463,0.0,0.0,0,0.841855
0.06367912,0.058656916,-0.29358724,-0.14684738,-0.48659045,0.11884598,0.0,0.0,0,0.843508
0.060796548,0.055213604,-0.29358932,-0.15117002,-0.48064816,0.118845664,0.0,0.0,0,0.845018
0.05791416,0.051673446,-0.2935914,-0.15549265,-0.4747059,0.118845366,0.0,0.0,0,10.846319
0.055031776,0.048036586,-0.29359347,-0.15981528,-0.46876365,0.11884508,1.0,0.0,0,2.306864
0.052148152,0.044868145,-0.30131286,-0.13688594,-0.45327273,0.31163853,1.0,0.0,0,3.598393
0.04931631,0.042302664,-0.30740577,-0.10642184,-0.42675164,0.5305304,1.0,0.0,0,5.331252
0.04665699,0.04010168,-0.30265135,-0.087219365,-0.3872281,0.7905108,1.0,0.0,0,5.332621
0.044087313,0.03804811,-0.3005013,-0.08014088,-0.3411533,0.9215625,1.0,0.0,0,-5.540901
0.041492082,0.035899412,-0.302406,-0.08598871,-0.29654124,0.8922413,0.0,0.0,0,4.668680
0.038901903,0.033678755,-0.3024856,-0.090468235,-0.25193536,0.89211893,0.0,0.0,0,4.667601
0.036316108,0.031386647,-0.3025544,-0.09494994,-0.20733562,0.8919962,0.0,0.0,0,4.666644
0.033733748,0.029023228,-0.30261233,-0.09943352,-0.16274199,0.891874,0.0,0.0,0,4.665758
0.03115425,0.026588641,-0.30265924,-0.10391863,-0.11815446,0.89175177,0.0,0.0,0,4.664912
0.028576756,0.0240831,-0.3026951,-0.10840496,-0.07357302,0.8916296,0.0,0.0,0,4.664047
0.0260005,0.02150675,-0.30271977,-0.112892166,-0.02899771,0.8915076,0.0,0.0,0,1.548780
0.023424625,0.018859515,-0.30273324,-0.117379926,0.015571506,0.8913857,0.0,0.0,0,-4.250813
0.02084837,0.016141616,-0.3027355,-0.12186791,0.060134634,0.89126366,0.0,0.0,0,-4.251463
0.018271064,0.013352833,-0.30272657,-0.12635578,0.10469168,0.8911418,0.0,0.0,3,6.889621
0.015773391,0.010508618,-0.29247144,-0.1299507,0.14716895,0.84954673,0.0,1.0,3,1.152682
0.013304043,0.008415815,-0.27217174,-0.09651787,0.16981614,0.44943652,0.0,1.0,3,2.383848
0.0107598305,0.0069047306,-0.25668895,-0.067438975,0.17201392,0.043858405,0.0,1.0,3,4.128861
0.008188534,0.0059481836,-0.24013464,-0.0406514,0.15493807,-0.34161344,0.0,1.0,0,3.584968
0.0055537224,0.0052775955,-0.23603258,-0.027190356,0.12750557,-0.5487294,0.0,1.0,0,3.314823
0.0029043197,0.004610369,-0.23493333,-0.027374974,0.09764052,-0.5973695,0.0,1.0,0,3.042951
0.0002746582,0.0038278794,-0.23404232,-0.033144686,0.06896744,-0.5734855,0.0,1.0,3,-5.768219
-0.0022574426,0.0029582358,-0.22180335,-0.03750223,0.03789235,-0.62152636,0.0,0.0,3,4.171393
-0.004702091,0.00201442,-0.2107857,-0.041437645,0.004615472,-0.6655639,0.0,0.0,0,7.301066
-0.0071463585,0.0009883856,-0.21074164,-0.045837216,-0.028657047,-0.6654771,1.0,0.0,0,-1.580016
-0.009427166,0.00031772614,-0.20910855,-0.030461788,-0.046592362,-0.3576869,1.0,0.0,0,0.423748
-0.011474991,8.233547e-05,-0.20559414,-0.010444101,-0.045768518,0.016516851,1.0,0.0,0,1.573467
-0.013355732,0.00014903308,-0.20297854,0.0033491768,-0.031005643,0.29530194,1.0,0.0,3,2.649340
-0.01509695,0.0003116107,-0.19373485,0.007515509,-0.011594238,0.38827887,1.0,0.0,3,1.334973
-0.016779328,0.00033539295,-0.18509588,0.0011052259,0.00504338,0.33275214,1.0,0.0,3,-10.920735
-0.018399429,0.00025517703,-0.17727731,-0.0036873405,0.020115739,0.3014472,0.0,0.0,3,11.009800
-0.019968605,0.00040688275,-0.16113678,0.00665254,0.024187809,0.08132146,0.0,1.0,0,0.509232
-0.021589184,0.0007570362,-0.15792702,0.015605703,0.020043626,-0.08296225,0.0,1.0,0,0.275989
-0.023202801,0.0009977198,-0.15763502,0.010740423,0.016357653,-0.073725566,0.0,1.0,0,0.230259
-0.024816513,0.0011413074,-0.15763503,0.0064192708,0.012671372,-0.07372543,0.0,1.0,3,1.678870
-0.026331902,0.0011924839,-0.14529979,0.0023142023,0.006513993,-0.12314759,0.0,1.0,3,-8.677849
-0.0277668,0.0011517501,-0.1352007,-0.0017947516,-0.001666309,-0.16360587,0.0,0.0,0,-0.973540
-0.029201698,0.0010147786,-0.13520065,-0.006120374,-0.009846551,-0.16360487,0.0,0.0,0,9.998669
-0.030541802,0.001016388,-0.13400055,7.072987e-05,-0.009859022,-0.00024950894,1.0,0.0,0,-0.067518
-0.031874754,0.0009386754,-0.13390937,-0.00345042,-0.009251093,0.012158801,1.0,0.0,3,0.932599
-0.033104707,0.00083135127,-0.12384862,-0.0047642426,-0.00841213,0.01677951,1.0,0.0,3,1.001227
-0.034227945,0.0006918764,-0.11342901,-0.006192853,-0.007322352,0.021795614,1.0,0.0,3,1.230677
-0.035225295,0.00053326844,-0.10098988,-0.0070443586,-0.0060838643,0.02476967,1.0,0.0,0,0.065281
-0.036215495,0.00029530286,-0.10089941,-0.010570722,-0.004227334,0.037130587,1.0,0.0,0,0.115157
-0.037198544,-2.2091866e-05,-0.100809455,-0.014100715,-0.0017546852,0.04945285,1.0,0.0,3,0.819327
-0.038087558,-0.0003819728,-0.0917341,-0.015991757,0.0010437692,0.055969067,1.0,0.0,3,11.616337
-0.038846493,-0.0003847623,-0.075892285,-0.00012467144,0.0010466618,5.684886e-05,1.0,1.0,3,0.864940
-0.039509296,-0.00038218737,-0.066282764,0.000112880276,0.001044043,-5.1472773e-05,1.0,1.0,0,0.023910
-0.04016323,-0.00038211583,-0.06538992,2.796005e-06,0.001043985,-1.2785425e-06,1.0,1.0,0,0.027087
-0.04080801,-0.00038211583,-0.06447427,-7.303197e-07,0.0010440032,3.337115e-07,1.0,1.0,0,0.028080
-0.041443635,-0.00038211583,-0.06355787,-2.9078842e-08,0.0010440069,1.6611189e-08,1.0,1.0,0,0.029020
-0.04207001,-0.00038211583,-0.062641315,6.711846e-09,0.0010440076,1.2250663e-10,1.0,1.0,0,0.029922
-0.042687226,-0.00038211583,-0.0617249,6.884967e-09,0.0010440098,4.131265e-10,1.0,1.0,0,0.030837
-0.043295287,-0.00038211583,-0.060808487,6.3624324e-09,0.001044012,5.977684e-11,1.0,1.0,0,0.031752
-0.043894194,-0.00038211583,-0.059892077,3.7729055e-09,0.0010440134,-1.9372135e-09,1.0,1.0,0,0.032668
-0.04448395,-0.00038211583,-0.058975667,1.2061319e-09,0.0010440148,-1.7261266e-09,1.0,1.0,0,0.033583
-0.045064546,-0.00038211583,-0.058059257,-1.8025872e-09,0.0010440162,-1.3340178e-09,1.0,1.0,0,0.034499
-0.045635987,-0.00038211583,-0.057142846,-4.697345e-09,0.0010440184,-8.2091967e-10,1.0,1.0,0,0.035414
-0.04619827,-0.00038211583,-0.05622644,-6.909301e-09,0.0010440206,1.5911805e-10,1.0,1.0,0,0.036330
-0.046751402,-0.00038211583,-0.05531003,-6.590062e-09,0.0010440213,-3.6747833e-10,1.0,1.0,0,0.037245
-0.04729538,-0.00038211583,-0.05439362,-6.138059e-09,0.0010440235,2.9301542e-10,1.0,1.0,0,0.038171
-0.047830105,-0.00038211583,-0.053477205,-5.7762057e-09,0.0010440256,7.9894386e-10,1.0,1.0,0,0.039086
-0.048355676,-0.00038211583,-0.052560788,-5.434309e-09,0.001044027,1.0569992e-09,1.0,1.0,0,0.040002
-0.04887209,-0.00038211583,-0.051644374,-5.0591793e-09,0.0010440284,-8.472301e-11,1.0,1.0,0,0.040917
-0.04937935,-0.00038211583,-0.050727956,-4.5767186e-09,0.0010440298,-8.509612e-11,1.0,1.0,0,0.041832
-0.049877454,-0.00038211583,-0.049811546,-4.0942565e-09,0.0010440319,3.3015524e-11,1.0,1.0,0,0.042747
-0.0503664,-0.00038211583,-0.048895136,-3.6117977e-09,0.0010440341,3.269506e-11,1.0,1.0,0,0.043663
-0.050846197,-0.00038211583,-0.047978725,-3.1293392e-09,0.0010440348,-8.515212e-11,1.0,1.0,0,0.044578
-0.051316835,-0.00038211583,-0.047062315,-1.6451752e-09,0.0010440373,5.519118e-09,1.0,1.0,0,0.045494
-0.051778316,-0.00038211583,-0.04614591,8.638811e-11,0.0010440395,2.340491e-09,1.0,1.0,0,0.046409
-0.052230645,-0.00038211583,-0.0452295,1.5613625e-09,0.001044041,1.6921969e-09,1.0,1.0,0,0.047325
-0.052673817,-0.00038211583,-0.044313088,3.0087408e-09,0.0010440425,1.6913475e-09,1.0,1.0,0,0.048250
-0.05310774,-0.00038211583,-0.043396678,4.570086e-09,0.001044044,2.1441413e-09,1.0,1.0,0,0.049165
-0.053532504,-0.00038211583,-0.042480268,5.509484e-09,0.0010440461,1.0628523e-09,1.0,1.0,0,0.050081
-0.053948116,-0.00038211583,-0.04156386,6.1723204e-09,0.0010440483,7.1778156e-10,1.0,1.0,0,0.050996
-0.05435457,-0.00038211583,-0.04064745,6.2132104e-09,0.001044049,-2.1069321e-10,1.0,1.0,0,0.051912
-0.054751873,-0.00038211583,-0.03973104,5.3598037e-09,0.0010440514,1.8349594e-09,1.0,1.0,0,0.052827
-0.05514002,-0.00038211583,-0.03881463,3.3338086e-09,0.0010440534,-3.1951917e-09,1.0,1.0,0,0.053743
-0.055519007,-0.00038211583,-0.03789822,6.1174493e-10,0.0010440543,-6.4681744e-09,1.0,1.0,0,0.054658
-0.055888843,-0.00038211583,-0.036981814,-2.2983715e-09,0.0010440553,-3.884869e-09,1.0,1.0,0,0.055574
-0.05624952,-0.00038211583,-0.036065403,-5.179807e-09,0.0010440565,-1.5106151e-09,1.0,1.0,0,0.056489
-0.056601048,-0.00038211583,-0.035148993,-6.1897842e-09,0.0010440586,2.3509067e-10,1.0,1.0,0,0.057405
-0.056943417,-0.00038211583,-0.034232583,-5.7415876e-09,0.0010440605,-1.3341621e-09,1.0,1.0,0,0.058330
-0.057276536,-0.00038211583,-0.033316173,-5.7762266e-09,0.001044061,-9.1183994e-10,1.0,1.0,0,0.059245
-0.0576005,-0.00038211583,-0.032399766,-5.776202e-09,0.0010440631,1.4163086e-09,1.0,1.0,0,0.060161
-0.057915308,-0.00038211583,-0.031483356,-5.789512e-09,0.0010440652,6.325297e-10,1.0,1.0,0,0.061076
-0.05822096,-0.00038211583,-0.030566946,-5.7895098e-09,0.0010440665,6.324473e-10,1.0,1.0,0,0.061992
-0.058517456,-0.00038211583,-0.029650535,-5.7895098e-09,0.0010440678,6.3224814e-10,1.0,1.0,0,0.062907
-0.0588048,-0.00038211583,-0.028734127,-4.1868558e-09,0.0010440692,2.6219809e-09,1.0,1.0,0,0.063823
-0.059082985,-0.00038211583,-0.027817717,-2.0437692e-09,0.0010440715,3.541609e-09,1.0,1.0,0,0.064738
-0.059352018,-0.00038211583,-0.026901308,-1.2724484e-10,0.0010440736,1.9563453e-09,1.0,1.0,0,0.065654
-0.059611894,-0.00038211583,-0.025984898,1.8025937e-09,0.0010440743,1.955796e-09,1.0,1.0,0,0.066569
-0.059862614,-0.00038211583,-0.025068488,3.8464014e-09,0.0010440764,2.4683957e-09,1.0,1.0,0,0.067485
-0.06010418,-0.00038211583,-0.024152078,5.3888747e-09,0.0010440786,1.2385091e-09,1.0,1.0,0,0.068410
-0.060336493,-0.00038211583,-0.023235667,6.3338272e-09,0.0010440799,-5.942736e-11,1.0,1.0,0,0.069325
-0.060559653,-0.00038211583,-0.022319255,6.8438863e-09,0.0010440812,-3.532989e-10,1.0,1.0,0,0.070241
-0.06077366,-0.00038211583,-0.021402845,6.770826e-09,0.0010440825,9.607708e-11,1.0,1.0,0,0.071156
-0.06097851,-0.00038211583,-0.020486435,6.540808e-09,0.0010440846,3.2780054e-10,1.0,1.0,0,0.072072
-0.061174203,-0.00038211583,-0.019570027,5.589202e-09,0.0010440865,1.0719717e-09,1.0,1.0,0,0.072987
-0.06136074,-0.00038211583,-0.018653616,3.768788e-09,0.0010440873,3.6407006e-09,1.0,1.0,3,0.948990
-0.061448477,-0.00038218737,-0.00877591,-2.9699122e-06,0.0010441523,1.3510505e-06,1.0,1.0,3,0.746426
-0.061438274,-0.00038161516,0.0010292542,2.6716349e-05,0.0010364081,-0.00015083177,1.0,1.0,0,0.091708
-0.06143713,-0.00038154365,0.0001135283,4.408427e-06,0.0010364554,1.0526203e-06,1.0,1.0,0,-0.015664
-0.061439704,-0.00038154365,-0.00026376554,-4.7678188e-07,0.0010403703,7.609001e-05,1.0,1.0,0,0.004784
-0.0614418,-0.00038154365,-0.00021069897,-3.137981e-07,0.0010435017,6.077258e-05,1.0,1.0,0,0.015767
-0.06144228,-0.00038154365,-5.179202e-05,-6.923618e-08,0.0010442609,1.4936808e-05,1.0,1.0,0,0.001750
-0.0614419,-0.00038154365,3.5193756e-05,4.6648946e-08,0.0010437412,-1.0148083e-05,1.0,1.0,0,-0.000398
-0.06144152,-0.00038154365,4.0142462e-05,5.400978e-08,0.0010431528,-1.1575615e-05,1.0,1.0,0,0.002575
-0.061441325,-0.00038154365,1.4814778e-05,1.9942087e-08,0.001042924,-4.2720403e-06,1.0,1.0,0,0.001131
-0.061441325,-0.00038154365,-3.453882e-06,-4.633031e-09,0.0010429738,9.955597e-07,1.0,1.0,0,-0.000389
-0.06144142,-0.00038154365,-7.136885e-06,-9.385703e-09,0.0010430816,2.0580876e-06,1.0,1.0,0,0.000354
-0.06144142,-0.00038154365,-3.5550627e-06,-4.8607953e-09,0.0010431253,1.0259711e-06,1.0,1.0,0,0.000355
-0.06144142,-0.00038154365,1.2917914e-08,1.2327667e-10,0.0010431197,-2.1455332e-08,1.0,1.0,0,-0.000115
-0.06144142,-0.00038154365,1.1775955e-06,1.6907291e-09,0.0010431039,-3.4347096e-07,1.0,1.0,0,0.000042
-0.06144142,-0.00038154365,7.707916e-07,9.0729685e-10,0.0010430946,-2.2984348e-07,1.0,1.0,0,0.000065
-0.06144142,-0.00038154365,1.2156866e-07,2.4387042e-10,0.0010430954,-5.5921085e-08,1.0,1.0,0,-0.000006
-0.06144142,-0.00038154365,-1.7409327e-07,-3.183733e-10,0.0010431014,4.9661345e-08,1.0,1.0,0,0.000001
-0.06144142,-0.00038154365,-1.5605943e-07,-3.3386632e-10,0.0010431069,5.0591858e-08,1.0,1.0,0,0.000011
-0.06144142,-0.00038154365,-4.4319165e-08,2.2828846e-11,0.001043112,1.6901943e-08,1.0,1.0,0,0.000002
-0.06144142,-0.00038154365,2.4422935e-08,8.847304e-11,0.001043114,-1.797998e-08,1.0,1.0,0,-0.000001
-0.06144142,-0.00038154365,3.150988e-08,-3.760497e-11,0.001043116,-1.7842684e-08,1.0,1.0,0,0.000001
-0.06144142,-0.00038154365,1.6249768e-08,1.4271174e-11,0.0010431185,-2.2009662e-08,1.0,1.0,0,0.000001
-0.06144142,-0.00038154365,2.7900022e-09,-2.002932e-10,0.0010431217,-9.521498e-09,1.0,1.0,0,-0.000001
-0.06144142,-0.00038154365,-5.2125677e-09,-2.8217842e-10,0.0010431259,1.2615817e-08,1.0,1.0,0,-0.000001
-0.06144142,-0.00038154365,-9.9565876e-09,-6.873712e-11,0.00104313,2.310872e-08,1.0,1.0,0,100
0.00085468293,1.4193256,0.08654755,0.37358844,-0.0009834833,-0.019604335,0.0,0.0,0,-0.600120
0.0017091751,1.4276557,0.086430766,0.3702292,-0.0019521314,-0.019373897,0.0,0.0,0,-0.503748
0.0025636673,1.4358896,0.08643375,0.36594936,-0.002920291,-0.019365128,0.0,0.0,0,-0.490036
0.003418255,1.4440264,0.086436614,0.3616254,-0.003888328,-0.019362506,0.0,0.0,0,-0.480750
0.0042728423,1.4520657,0.08643948,0.357303,-0.0048562167,-0.019359477,0.0,0.0,0,-0.471416
0.00512743,1.4600079,0.086442344,0.3529812,-0.0058239494,-0.01935644,0.0,0.0,0,-0.462012
0.005982113,1.4678527,0.086445205,0.3486596,-0.0067915176,-0.0193534,0.0,0.0,0,-0.452639
0.0068367957,1.4756005,0.08644806,0.34433788,-0.0077589704,-0.019350495,0.0,0.0,0,-0.443252
0.007691479,1.483251,0.0864509,0.3400161,-0.008726271,-0.019348133,0.0,0.0,0,-0.433881
0.008546161,1.4908042,0.08645371,0.33569434,-0.00969345,-0.019345347,0.0,0.0,0,-0.424514
0.0094010355,1.4982603,0.08645653,0.33137247,-0.010660507,-0.019342674,0.0,0.0,0,-0.415181
0.010255814,1.505619,0.08645934,0.32705066,-0.011627407,-0.019339774,0.0,0.0,0,-0.405837
0.011110592,1.5128806,0.08646215,0.32272872,-0.012594177,-0.019337298,0.0,0.0,0,-0.396514
0.011965561,1.5200449,0.086464934,0.3184068,-0.0135608055,-0.019334506,0.0,0.0,0,-0.387216
0.012820435,1.527112,0.08646772,0.31408483,-0.014527321,-0.019332128,0.0,0.0,0,-0.377908
0.013675308,1.5340818,0.08647048,0.30976284,-0.0154936975,-0.019329386,0.0,0.0,0,-0.368649
0.014530277,1.5409546,0.08647324,0.30544075,-0.016459936,-0.019326823,0.0,0.0,0,-0.359390
0.015385246,1.54773,0.08647599,0.3011187,-0.01742603,-0.0193238,0.0,0.0,0,-0.350137
0.016240215,1.5544082,0.08647874,0.29679653,-0.018391998,-0.019321226,0.0,0.0,0,-0.340909
0.017095279,1.5609891,0.08648147,0.2924744,-0.019357812,-0.019318406,0.0,0.0,0,-0.331697
0.017950345,1.5674728,0.086484194,0.2881522,-0.020323496,-0.01931548,0.0,0.0,0,-0.322523
0.018805504,1.5738593,0.08648691,0.28382996,-0.021289049,-0.019312782,0.0,0.0,0,-0.313355
0.019660568,1.5801486,0.08648962,0.27950767,-0.022254467,-0.019309957,0.0,0.0,0,-0.304208
0.020515729,1.5863405,0.086492315,0.27518538,-0.023219734,-0.019307036,0.0,0.0,0,-0.295101
0.021370888,1.5924354,0.08649499,0.27086303,-0.024184864,-0.019304361,0.0,0.0,0,-0.192085
0.022225762,1.5984113,0.08646244,0.26558712,-0.025149971,-0.019302275,0.0,0.0,0,-0.275096
0.023080539,1.6042902,0.08646243,0.26126707,-0.026115075,-0.01930225,0.0,0.0,0,-0.266076
0.023935413,1.610072,0.08646243,0.25694698,-0.02708018,-0.019302221,0.0,0.0,0,-0.257086
0.024790192,1.6157564,0.08646243,0.2526269,-0.02804528,-0.019302275,0.0,0.0,0,-0.248144
0.025645066,1.6213437,0.08646243,0.24830681,-0.02901039,-0.019302228,0.0,0.0,0,-0.239238
0.026499843,1.6268339,0.08646243,0.24398676,-0.029975504,-0.019302193,0.0,0.0,0,-0.230365
0.027354717,1.632227,0.08646243,0.23966667,-0.030940609,-0.019302165,0.0,0.0,0,-0.221517
0.028209496,1.6375227,0.08646242,0.23534659,-0.03190571,-0.01930215,0.0,0.0,0,-0.212713
0.029064368,1.6427212,0.08646242,0.2310265,-0.032870814,-0.019302163,0.0,0.0,0,-0.203979
0.029919147,1.6478226,0.086462416,0.22670642,-0.033835918,-0.019302169,0.0,0.0,0,-0.195253
0.030774022,1.6528267,0.08646241,0.22238632,-0.034801036,-0.019302182,0.0,0.0,0,-0.186621
0.0316288,1.6577338,0.08646241,0.21806625,-0.035766147,-0.01930217,0.0,0.0,0,-0.177996
0.032483675,1.6625434,0.08646241,0.21374618,-0.03673125,-0.019302173,0.0,0.0,0,-0.169471
0.033338547,1.6672561,0.08646241,0.2094261,-0.037696358,-0.019302163,0.0,0.0,0,-0.160980
0.034193326,1.6718715,0.0864624,0.20510602,-0.038661465,-0.01930216,0.0,0.0,0,-0.152570
0.035048198,1.6763898,0.08646239,0.20078595,-0.039626565,-0.019302145,0.0,0.0,0,-0.144214
0.035902977,1.6808108,0.08646239,0.19646588,-0.04059167,-0.019302163,0.0,0.0,0,-0.135948
0.03675785,1.6851346,0.08646239,0.1921458,-0.041556764,-0.019302169,0.0,0.0,0,-0.127763
0.03761263,1.6893613,0.08646239,0.1878257,-0.042521868,-0.019302169,0.0,0.0,0,-0.119652
0.038467504,1.6934909,0.08646239,0.18350561,-0.043486968,-0.019302174,0.0,0.0,0,-0.111648
0.03932228,1.6975231,0.08646239,0.17918555,-0.044452056,-0.019302174,0.0,0.0,0,-0.103727
0.040177155,1.7014582,0.08646238,0.17486545,-0.045417156,-0.019302148,0.0,0.0,0,-0.095936
0.041032027,1.7052962,0.08646238,0.17054538,-0.046382263,-0.01930215,0.0,0.0,0,-0.088254
0.041886806,1.709037,0.08646237,0.16622533,-0.04734736,-0.019302148,0.0,0.0,0,-0.080684
0.04274168,1.7126805,0.08646236,0.16190524,-0.04831245,-0.019302148,0.0,0.0,0,-0.073266
0.043596458,1.7162268,0.086462356,0.15758517,-0.049277544,-0.01930214,0.0,0.0,0,-0.065993
0.044451334,1.719676,0.08646234,0.15326509,-0.050242644,-0.019302135,0.0,0.0,0,-0.058867
0.045306206,1.7230281,0.086462334,0.14894502,-0.05120776,-0.019302143,0.0,0.0,0,-0.051924
0.046160985,1.7262828,0.086462334,0.14462495,-0.052172862,-0.019302148,0.0,0.0,0,-0.045165
0.047015857,1.7294406,0.086462334,0.14030486,-0.053137966,-0.019302165,0.0,0.0,0,-0.038593
0.047870733,1.732501,0.086462334,0.1359848,-0.05410307,-0.01930217,0.0,0.0,0,-0.032252
0.04872551,1.7354643,0.086462334,0.1316647,-0.055068165,-0.019302178,0.0,0.0,0,-0.026136
0.049580384,1.7383304,0.08646233,0.12734462,-0.056033272,-0.019302178,0.0,0.0,0,-0.020289
0.050435163,1.7410992,0.08646231,0.123024546,-0.05699838,-0.019302173,0.0,0.0,0,-0.014721
0.051290035,1.7437711,0.086462304,0.11870447,-0.05796349,-0.019302173,0.0,0.0,0,-0.009439
0.052144907,1.7463455,0.086462304,0.1143844,-0.058928594,-0.019302163,0.0,0.0,0,-0.004500
0.052999686,1.7488229,0.0864623,0.11006432,-0.059893694,-0.019302163,0.0,0.0,0,0.000096
0.053854562,1.751203,0.0864623,0.10574425,-0.0608588,-0.019302165,0.0,0.0,0,0.004280
0.054709435,1.753486,0.0864623,0.10142417,-0.061823893,-0.019302163,0.0,0.0,0,0.008085
0.055564214,1.7556717,0.0864623,0.097104095,-0.062788986,-0.01930213,0.0,0.0,0,0.011391
0.056419086,1.7577604,0.08646229,0.09278402,-0.063754104,-0.01930219,0.0,0.0,0,0.014250
0.05727396,1.7597517,0.08646228,0.08846394,-0.064719215,-0.019302186,0.0,0.0,0,0.016535
0.058128737,1.761646,0.086462274,0.08414386,-0.065684326,-0.019302137,0.0,0.0,0,0.018275
0.058983613,1.763443,0.086462274,0.07982378,-0.06664941,-0.019302143,0.0,0.0,0,0.019392
0.059838485,1.7651427,0.08646226,0.07550371,-0.067614526,-0.019302169,0.0,0.0,0,0.019836
0.06069336,1.7667453,0.08646225,0.07118364,-0.06857964,-0.019302163,0.0,0.0,0,0.019572
0.061548136,1.7682508,0.086462244,0.06686356,-0.06954474,-0.019302156,0.0,0.0,0,0.018552
0.062403012,1.7696592,0.086462244,0.06254348,-0.07050986,-0.019302156,0.0,0.0,0,0.016755
0.06325789,1.7709702,0.08646224,0.058223404,-0.071474954,-0.019302133,0.0,0.0,0,0.014117
0.06411276,1.772184,0.08646222,0.053903323,-0.072440065,-0.019302154,0.0,0.0,0,0.010581
0.064967535,1.7733008,0.086462215,0.049583245,-0.07340516,-0.01930216,0.0,0.0,0,0.006184
0.06582241,1.7743201,0.08646221,0.045263167,-0.07437027,-0.019302169,0.0,0.0,0,0.000828
0.06667729,1.7752426,0.08646221,0.040943086,-0.07533538,-0.0193022,0.0,0.0,0,-0.005423
0.06753216,1.7760677,0.0864622,0.036623005,-0.076300494,-0.019302199,0.0,0.0,0,-0.012605
0.068386935,1.7767956,0.086462185,0.032302927,-0.077265605,-0.01930219,0.0,0.0,0,-0.020663
0.06924181,1.7774264,0.08646218,0.02798285,-0.07823072,-0.019302191,0.0,0.0,0,-0.029580
0.07009669,1.77796,0.08646217,0.023662772,-0.07919583,-0.019302173,0.0,0.0,0,-0.039261
0.07095156,1.7783962,0.086462155,0.019342694,-0.08016094,-0.019302178,0.0,0.0,0,-0.049646
0.07180643,1.7787354,0.08646215,0.015022617,-0.08112605,-0.019302178,0.0,0.0,0,-0.060598
0.072661206,1.7789774,0.08646213,0.010702538,-0.08209115,-0.019302186,0.0,0.0,0,-0.072036
0.073516086,1.7791222,0.086462125,0.006382461,-0.08305627,-0.019302193,0.0,0.0,0,-0.083740
0.07437096,1.7791698,0.08646212,0.0020623836,-0.08402138,-0.019302202,0.0,0.0,0,-0.095642
0.07522583,1.7791202,0.08646211,-0.0022576938,-0.08498648,-0.019302193,0.0,0.0,0,-0.107516
0.0760807,1.7789735,0.086462095,-0.0065777716,-0.08595159,-0.01930217,0.0,0.0,0,-0.119240
0.076935574,1.7787296,0.08646209,-0.010897848,-0.08691671,-0.01930216,0.0,0.0,0,-0.130630
0.07779036,1.7783884,0.08646207,-0.015217926,-0.0878818,-0.01930217,0.0,0.0,0,-0.141582
0.07864523,1.77795,0.086462066,-0.019538002,-0.08884693,-0.019302186,0.0,0.0,0,-0.151927
0.0795001,1.7774146,0.08646206,-0.023858078,-0.08981203,-0.01930219,0.0,0.0,0,-0.161596
0.08035497,1.7767818,0.08646204,-0.028178155,-0.090777144,-0.019302178,0.0,0.0,0,-0.170469
0.08120985,1.7760518,0.086462036,-0.032498233,-0.09174225,-0.01930216,0.0,0.0,0,-0.178526
0.082064725,1.7752248,0.08646202,-0.036818314,-0.09270736,-0.019302137,0.0,0.0,0,-0.185647
0.0829196,1.7743005,0.086462006,-0.041138396,-0.093672454,-0.01930214,0.0,0.0,0,-0.191898
0.08377447,1.7732791,0.086462,-0.045458477,-0.09463756,-0.019302107,0.0,0.0,0,-0.197210
0.08462934,1.7721605,0.08646198,-0.04977856,-0.095602654,-0.019302111,0.0,0.0,0,-0.201591
0.08548422,1.7709447,0.086461976,-0.05409864,-0.09656775,-0.01930211,0.0,0.0,0,-0.205089
0.086339094,1.7696319,0.08646196,-0.05841871,-0.097532846,-0.01930208,0.0,0.0,0,-0.207702
0.087193966,1.7682216,0.08646195,-0.06273878,-0.09849793,-0.019302065,0.0,0.0,0,-0.209500
0.08804884,1.7667143,0.08646194,-0.06705887,-0.09946303,-0.019302083,0.0,0.0,0,-0.210488
0.08890371,1.7651097,0.086461924,-0.07137894,-0.10042815,-0.019302068,0.0,0.0,0,-0.210738
0.08975859,1.763408,0.08646192,-0.075699,-0.10139325,-0.019302044,0.0,0.0,0,-0.210284
0.09061346,1.7616091,0.0864619,-0.08001909,-0.10235834,-0.019302035,0.0,0.0,0,-0.209159
0.091468334,1.7597129,0.08646189,-0.084339164,-0.103323445,-0.019302025,0.0,0.0,0,-0.207432
0.09232321,1.7577196,0.08646188,-0.08865925,-0.10428855,-0.019302033,0.0,0.0,0,-0.205134
0.09317808,1.7556293,0.086461864,-0.09297933,-0.105253644,-0.019302033,0.0,0.0,0,-0.202280
0.09403296,1.7534415,0.08646186,-0.09729941,-0.106218755,-0.019302024,0.0,0.0,0,-0.198977
0.09488783,1.7511566,0.08646184,-0.10161949,-0.10718385,-0.019302027,0.0,0.0,0,-0.195197
0.0957427,1.7487745,0.08646183,-0.105939575,-0.10814896,-0.019302046,0.0,0.0,0,-0.191012
0.096597575,1.7462953,0.08646182,-0.11025965,-0.10911406,-0.01930207,0.0,0.0,0,-0.186444
0.09745245,1.743719,0.086461805,-0.11457973,-0.110079154,-0.019302083,0.0,0.0,0,-0.181508
0.09830733,1.7410454,0.0864618,-0.118899815,-0.11104424,-0.019302085,0.0,0.0,0,-0.176250
0.0991622,1.7382745,0.08646178,-0.12321989,-0.112009354,-0.019302089,0.0,0.0,0,-0.170716
0.10001707,1.7354065,0.08646177,-0.12753996,-0.11297446,-0.019302074,0.0,0.0,0,-0.164881
0.10087204,1.7324414,0.08646176,-0.13186005,-0.11393955,-0.019302044,0.0,0.0,0,-0.158791
0.10172691,1.7293789,0.086461745,-0.13618012,-0.11490466,-0.019302282,0.0,0.0,0,-0.152483
0.102581784,1.7262194,0.08646174,-0.1405002,-0.11586976,-0.019302275,0.0,0.0,0,-0.145960
0.103436664,1.7229626,0.08646172,-0.14482027,-0.11683488,-0.01930227,0.0,0.0,0,-0.139222
0.104291536,1.7196087,0.08646171,-0.14914036,-0.11779998,-0.019302292,0.0,0.0,0,-0.132318
0.10514641,1.7161576,0.08646169,-0.15346044,-0.1187651,-0.01930229,0.0,0.0,0,-0.125229
0.10600138,1.7126092,0.08646168,-0.15778051,-0.11973022,-0.019302292,0.0,0.0,0,-0.118011
0.10685625,1.7089639,0.08646167,-0.1621006,-0.12069532,-0.019302255,0.0,0.0,0,-0.110608
0.10771112,1.705221,0.086461656,-0.16642068,-0.12166043,-0.019302228,0.0,0.0,0,-0.103100
0.108566,1.7013811,0.08646165,-0.17074077,-0.12262554,-0.019302215,0.0,0.0,0,-0.095468
0.10942097,1.6974441,0.08646162,-0.17506082,-0.123590656,-0.019302212,0.0,0.0,0,-0.087723
0.11027584,1.6934099,0.08646161,-0.17938091,-0.12455576,-0.019302238,0.0,0.0,0,-0.079845
0.111130714,1.6892782,0.08646159,-0.183701,-0.12552088,-0.019302221,0.0,0.0,0,-0.071908
0.11198559,1.6850497,0.08646158,-0.18802108,-0.12648599,-0.019302197,0.0,0.0,0,-0.063855
0.112840556,1.6807238,0.08646157,-0.19234115,-0.1274511,-0.019302191,0.0,0.0,0,-0.055726
0.11369543,1.6763008,0.08646156,-0.19666122,-0.12841621,-0.019302165,0.0,0.0,0,-0.047522
0.11455031,1.6717807,0.086461544,-0.2009813,-0.1293813,-0.019302148,0.0,0.0,0,-0.039233
0.11540528,1.6671633,0.08646153,-0.20530137,-0.1303464,-0.019302145,0.0,0.0,0,-0.030873
0.11626015,1.6624486,0.08646152,-0.20962146,-0.1313115,-0.019302132,0.0,0.0,0,-0.022478
0.11711502,1.6576369,0.08646151,-0.21394153,-0.13227661,-0.019302156,0.0,0.0,0,-0.013983
0.11796999,1.6527278,0.0864615,-0.21826161,-0.1332417,-0.01930217,0.0,0.0,0,-0.005476
0.11882486,1.6477218,0.086461484,-0.22258168,-0.1342068,-0.019302178,0.0,0.0,0,0.003111
0.11967983,1.6426184,0.08646147,-0.22690177,-0.1351719,-0.019302156,0.0,0.0,0,0.011733
0.1205347,1.6374179,0.08646146,-0.23122185,-0.13613701,-0.019302139,0.0,0.0,0,0.020413
0.12138958,1.6321201,0.08646145,-0.23554192,-0.13710211,-0.019302126,0.0,0.0,0,0.029122
0.12224455,1.6267253,0.086461425,-0.23986201,-0.1380672,-0.019302128,0.0,0.0,0,0.037882
0.123099424,1.6212331,0.08646141,-0.2441821,-0.1390323,-0.019302126,0.0,0.0,0,0.046664
0.12395439,1.6156439,0.086461395,-0.24850218,-0.13999741,-0.019302156,0.0,0.0,0,0.055494
0.124809265,1.6099572,0.08646138,-0.25282228,-0.14096251,-0.019302167,0.0,0.0,0,0.064329
0.12566423,1.6041737,0.086461365,-0.25714236,-0.14192761,-0.019302173,0.0,0.0,0,0.073223
0.12651911,1.5982928,0.08646134,-0.26146242,-0.14289272,-0.019302202,0.0,0.0,0,0.082128
0.12737408,1.592315,0.08646132,-0.2657825,-0.14385782,-0.019302182,0.0,0.0,0,0.091067
0.12822895,1.5862398,0.08646129,-0.27010256,-0.1448229,-0.019301856,0.0,0.0,0,0.100032
0.12908392,1.5800674,0.086461276,-0.27442265,-0.14578798,-0.019301869,0.0,0.0,0,0.109010
0.12993889,1.573798,0.08646126,-0.27874273,-0.14675307,-0.019301858,0.0,0.0,0,0.118023
0.13079377,1.5674312,0.08646124,-0.28306282,-0.14771818,-0.01930185,0.0,0.0,0,0.127049
0.13164873,1.5609672,0.08646123,-0.2873828,-0.14868326,-0.019301841,0.0,0.0,0,0.136103
0.1325036,1.554406,0.086461216,-0.29170284,-0.14964834,-0.019301865,0.0,0.0,0,0.145148
0.13335857,1.5477477,0.0864612,-0.29602292,-0.15061344,-0.019301863,0.0,0.0,0,0.154225
0.13421354,1.5409923,0.08646119,-0.30034298,-0.15157852,-0.019301854,0.0,0.0,0,0.163325
0.13506842,1.5341396,0.086461164,-0.30466303,-0.15254359,-0.01930187,0.0,0.0,0,0.172417
0.13592339,1.5271897,0.08646114,-0.30898312,-0.1535087,-0.019301904,0.0,0.0,0,0.181528
0.13677835,1.5201428,0.08646111,-0.31330317,-0.1544738,-0.019301929,0.0,0.0,0,0.190684
0.13763323,1.5129983,0.08646109,-0.31762323,-0.15543889,-0.01930195,0.0,0.0,0,0.199796
0.1384882,1.505757,0.08646107,-0.3219433,-0.156404,-0.019301971,0.0,0.0,0,0.208958
0.13934317,1.4984183,0.08646105,-0.32626337,-0.1573691,-0.01930197,0.0,0.0,0,0.218110
0.14019814,1.4909825,0.08646103,-0.33058342,-0.15833421,-0.019301951,0.0,0.0,0,0.227269
0.141053,1.4834496,0.08646102,-0.3349035,-0.1592993,-0.019301953,0.0,0.0,0,0.236452
0.14190798,1.4758193,0.08646099,-0.33922353,-0.1602644,-0.019301955,0.0,0.0,0,0.245639
0.14276294,1.4680918,0.08646097,-0.3435436,-0.1612295,-0.019301951,0.0,0.0,0,0.254800
0.14361791,1.4602674,0.08646095,-0.34786367,-0.16219462,-0.019301936,0.0,0.0,0,0.264005
0.14447288,1.4523456,0.086460926,-0.35218373,-0.16315971,-0.019301899,0.0,0.0,0,0.273205
0.14532776,1.4443266,0.08646091,-0.3565038,-0.1641248,-0.01930191,0.0,0.0,0,0.282394
0.14618273,1.4362105,0.086460896,-0.3608239,-0.16508992,-0.019301929,0.0,0.0,0,0.291592
0.1470377,1.4279972,0.08646087,-0.36514395,-0.16605501,-0.01930196,0.0,0.0,0,0.300802
0.14789267,1.4196867,0.08646084,-0.36946404,-0.16702011,-0.019301962,0.0,0.0,0,0.310004
0.14874764,1.411279,0.08646083,-0.3737841,-0.16798522,-0.019301984,0.0,0.0,0,0.319215
0.1496026,1.402774,0.086460814,-0.37810418,-0.16895032,-0.01930199,0.0,0.0,0,0.328423
0.15045758,1.394172,0.08646079,-0.3824242,-0.16991541,-0.019301966,0.0,0.0,0,0.337616
0.15131254,1.3854727,0.08646078,-0.3867443,-0.17088051,-0.019301964,0.0,0.0,0,0.346835
0.15216751,1.3766762,0.086460754,-0.3910643,-0.17184561,-0.01930197,0.0,0.0,0,0.356028
0.15302248,1.3677826,0.08646074,-0.39538437,-0.1728107,-0.019301968,0.0,0.0,0,0.365228
0.15387745,1.3587918,0.086460724,-0.3997044,-0.1737758,-0.019301947,0.0,0.0,0,0.374443
0.15473242,1.3497036,0.08646071,-0.40402448,-0.17474091,-0.019301962,0.0,0.0,0,0.383624
0.15558739,1.3405185,0.08646069,-0.40834448,-0.17570601,-0.01930194,0.0,0.0,0,0.392816
0.15644236,1.331236,0.086460665,-0.41266456,-0.17667113,-0.019301951,0.0,0.0,0,0.401999
0.15729733,1.3218564,0.08646064,-0.41698465,-0.17763622,-0.019301951,0.0,0.0,0,0.411185
0.1581523,1.3123796,0.086460635,-0.42130473,-0.17860134,-0.019301947,0.0,0.0,0,0.420341
0.15900727,1.3028057,0.086460605,-0.42562482,-0.17956644,-0.019301962,0.0,0.0,0,0.429519
0.15986224,1.2931346,0.08646058,-0.4299449,-0.18053153,-0.019301964,0.0,0.0,0,0.438671
0.1607173,1.2833663,0.08646057,-0.434265,-0.18149664,-0.01930197,0.0,0.0,0,0.447833
0.16157226,1.2735008,0.086460546,-0.43858507,-0.18246174,-0.019301947,0.0,0.0,0,0.456972
0.16242723,1.2635381,0.08646053,-0.44290513,-0.18342683,-0.019301904,0.0,0.0,0,0.466099
0.1632822,1.2534784,0.086460516,-0.4472252,-0.18439192,-0.019301903,0.0,0.0,0,0.475248
0.16413717,1.2433212,0.086460486,-0.45154527,-0.185357,-0.019301893,0.0,0.0,0,0.484336
0.16499224,1.233067,0.08646046,-0.45586535,-0.1863221,-0.019301876,0.0,0.0,0,0.493451
0.16584721,1.2227155,0.08646044,-0.46018538,-0.18728718,-0.019301865,0.0,0.0,0,0.502528
0.16670218,1.2122669,0.08646042,-0.4645054,-0.18825227,-0.019301862,0.0,0.0,0,0.511592
0.16755715,1.2017212,0.0864604,-0.4688255,-0.18921736,-0.019301873,0.0,0.0,0,0.520655
0.16841221,1.1910782,0.08646037,-0.47314557,-0.19018246,-0.019301858,0.0,0.0,0,0.529709
0.16926718,1.1803379,0.086460344,-0.47746566,-0.19114754,-0.01930186,0.0,0.0,0,0.538708
0.17012224,1.1695006,0.08646033,-0.48178574,-0.19211264,-0.01930178,0.0,0.0,0,0.547724
0.1709772,1.1585661,0.08646031,-0.48610583,-0.19307774,-0.019301787,0.0,0.0,2,5.838470
0.17203169,1.1489431,0.106338784,-0.4278027,-0.19397052,-0.017855857,0.0,0.0,2,3.457130
0.1731143,1.140042,0.109511055,-0.3957662,-0.19522233,-0.025036326,0.0,0.0,2,5.469507
0.17424755,1.1324091,0.11514616,-0.33948138,-0.1970616,-0.036785163,0.0,0.0,2,3.718998
0.17557077,1.125802,0.13397197,-0.2938609,-0.19871649,-0.033097986,0.0,0.0,0,0.082702
0.1768941,1.119098,0.1339719,-0.29818106,-0.20037138,-0.033097997,0.0,0.0,0,0.090838
0.17821741,1.1122968,0.13397184,-0.30250126,-0.20202628,-0.033097975,0.0,0.0,0,0.098998
0.17954072,1.1053984,0.13397177,-0.30682147,-0.20368117,-0.033097964,0.0,0.0,0,0.107184
0.18086395,1.0984027,0.13397169,-0.31114167,-0.20533606,-0.033097938,0.0,0.0,0,0.115366
0.18218727,1.09131,0.1339716,-0.3154619,-0.20699096,-0.03309793,0.0,0.0,0,0.123543
0.18351059,1.0841203,0.13397154,-0.3197821,-0.20864585,-0.033097897,0.0,0.0,0,0.131771
0.18483391,1.0768331,0.13397147,-0.3241023,-0.21030074,-0.03309789,0.0,0.0,2,4.548513
0.18642569,1.0709689,0.16057956,-0.26083738,-0.2117196,-0.028376913,0.0,0.0,2,1.469882
0.18810368,1.0656143,0.16920945,-0.23818035,-0.21314158,-0.028439362,0.0,0.0,2,3.358419
0.18984433,1.061391,0.17598534,-0.18797249,-0.2150817,-0.03880275,0.0,0.0,0,-0.116726
0.19158497,1.0570709,0.17598522,-0.1922928,-0.21702182,-0.038802736,0.0,0.0,0,-0.110984
0.19332552,1.0526533,0.17598513,-0.19661312,-0.21896195,-0.038802724,0.0,0.0,0,-0.105183
0.19506617,1.0481387,0.17598501,-0.20093343,-0.22090207,-0.038802713,0.0,0.0,0,-0.099265
0.19680682,1.0435269,0.17598492,-0.20525375,-0.2228422,-0.038802724,0.0,0.0,0,-0.093283
0.19854745,1.0388181,0.17598481,-0.20957406,-0.22478233,-0.038802728,0.0,0.0,0,-0.087189
0.2002881,1.0340121,0.17598471,-0.21389437,-0.22672246,-0.038802747,0.0,0.0,0,-0.081050
0.20202884,1.029109,0.1759846,-0.21821469,-0.2286626,-0.038802736,0.0,0.0,1,1.039534
0.20367679,1.0241523,0.16426271,-0.22021323,-0.22811729,0.010906294,0.0,0.0,1,1.084259
0.20524693,1.0191365,0.15440033,-0.22251725,-0.22547555,0.05283445,0.0,0.0,1,1.170705
0.20674105,1.0140444,0.14486422,-0.22562866,-0.2208704,0.09210296,0.0,0.0,1,1.258549
0.20816727,1.0088742,0.13633189,-0.22885598,-0.21450762,0.12725534,0.0,0.0,0,0.750692
0.20959349,1.0036075,0.1363308,-0.23317927,-0.20814489,0.12725496,0.0,0.0,0,0.757799
0.2110199,0.998244,0.13632974,-0.23750257,-0.20178215,0.1272546,0.0,0.0,0,0.764926
0.2124464,0.99278384,0.13632871,-0.2418259,-0.19541943,0.12725423,0.0,0.0,0,0.772127
0.21387291,0.9872269,0.13632771,-0.24614923,-0.18905674,0.12725386,0.0,0.0,0,0.779324
0.2152996,0.9815735,0.13632676,-0.25047252,-0.18269406,0.12725352,0.0,0.0,0,0.786600
0.2167263,0.9758233,0.1363258,-0.25479585,-0.1763314,0.12725316,0.0,0.0,0,0.793892
0.218153,0.96997637,0.13632491,-0.25911918,-0.16996875,0.12725279,0.0,0.0,0,0.801193
0.21957989,0.9640328,0.13632403,-0.26344255,-0.16360614,0.12725243,0.0,0.0,0,0.808533
0.22100678,0.9579927,0.13632318,-0.2677659,-0.15724355,0.12725206,0.0,0.0,0,0.815889
0.22243366,0.9518559,0.13632236,-0.2720892,-0.15088096,0.12725171,0.0,0.0,0,0.823284
0.22386055,0.9456223,0.13632157,-0.27641255,-0.14451838,0.12725133,0.0,0.0,1,1.603866
0.22520141,0.93931776,0.12546405,-0.2793936,-0.1359311,0.17174506,0.0,0.0,1,1.572231
0.226474,0.9329231,0.11690863,-0.28329822,-0.12562512,0.20611978,0.0,0.0,1,1.823650
0.22766352,0.92643744,0.106485344,-0.28724638,-0.11323069,0.24788873,0.0,0.0,1,1.923765
0.2287837,0.91986483,0.097759984,-0.2910964,-0.09908008,0.2830122,0.0,0.0,0,1.623298
0.22990409,0.91319764,0.0977573,-0.29543304,-0.08492967,0.28300837,0.0,0.0,0,1.631046
0.23102446,0.9064359,0.09775497,-0.29976973,-0.07077946,0.28300446,0.0,0.0,0,1.638776
0.23214512,0.8995796,0.097753,-0.3041064,-0.05662942,0.28300056,0.0,0.0,0,1.646483
0.23326579,0.89262885,0.097751394,-0.30844313,-0.042479593,0.28299668,0.0,0.0,0,1.654209
0.23438653,0.88558334,0.097750135,-0.31277987,-0.028329957,0.28299278,0.0,0.0,0,1.661877
0.2355074,0.87844336,0.097749226,-0.3171166,-0.014180525,0.28298885,0.0,0.0,0,1.669519
0.23662825,0.87120897,0.097748674,-0.3214533,-3.128046e-05,0.28298497,0.0,0.0,0,-1.146389
0.2377491,0.86387986,0.09774847,-0.32579005,0.014117756,0.28298107,0.0,0.0,0,-1.145020
0.23886986,0.8564564,0.097748645,-0.3301268,0.028266616,0.28297716,0.0,0.0,0,-1.137413
0.23999062,0.84893835,0.09774916,-0.33446354,0.042415276,0.2829733,0.0,0.0,0,-1.129857
0.24111128,0.8413259,0.09775004,-0.33880028,0.056563757,0.2829694,0.0,0.0,0,-1.122310
0.24223185,0.8336187,0.09775126,-0.343137,0.07071203,0.2829655,0.0,0.0,0,-1.114834
0.24335232,0.8258171,0.09775285,-0.3474737,0.084860116,0.28296158,0.0,0.0,0,-1.107383
0.2444725,0.817921,0.09775478,-0.3518104,0.09900801,0.2829577,0.0,0.0,0,-1.099994
0.24559268,0.80993026,0.09775707,-0.35614708,0.11315569,0.28295383,0.0,0.0,0,-1.092652
0.2467126,0.801845,0.097759716,-0.36048374,0.12730318,0.28294992,0.0,0.0,0,-1.085374
0.24783221,0.79366535,0.097762726,-0.36482036,0.14145046,0.28294605,0.0,0.0,0,-1.078138
0.24895163,0.78539103,0.09776608,-0.36915693,0.15559755,0.28294212,0.0,0.0,0,-1.070985
0.25007075,0.77702206,0.09776978,-0.37349352,0.16974446,0.28293824,0.0,0.0,0,-1.063896
0.25118962,0.7685586,0.097773835,-0.37783003,0.18389118,0.28293434,0.0,0.0,0,-1.056868
0.25230807,0.7600004,0.097778246,-0.3821665,0.19803768,0.28293043,0.0,0.0,0,-1.049936
0.25342616,0.7513477,0.097783014,-0.38650292,0.21218403,0.28292656,0.0,0.0,0,-1.043093
0.25454396,0.7426004,0.09778812,-0.3908393,0.22633016,0.28292266,0.0,0.0,0,-1.036326
0.2556613,0.7337584,0.09779358,-0.39517567,0.24047612,0.28291878,0.0,0.0,0,-1.029678
0.25677824,0.724822,0.097799376,-0.39951196,0.25462183,0.28291488,0.0,0.0,0,-1.023097
0.2578947,0.71579075,0.09780552,-0.4038482,0.26876736,0.282911,0.0,0.0,0,-1.016673
0.2590107,0.7066651,0.09781201,-0.40818438,0.28291273,0.28290707,0.0,0.0,0,-1.010322
0.2601262,0.6974446,0.097818844,-0.41252047,0.2970579,0.2829032,0.0,0.0,0,-1.004122
0.26124126,0.68812954,0.09782602,-0.4168565,0.31120282,0.28289932,0.0,0.0,0,-0.998051
0.26235572,0.67871976,0.09783353,-0.4211925,0.3253476,0.2828954,0.0,0.0,0,-0.992130
0.26346952,0.66921544,0.097841375,-0.4255284,0.3394922,0.2828915,0.0,0.0,0,-0.986335
0.26458272,0.6596163,0.09784956,-0.42986423,0.3536366,0.2828876,0.0,0.0,2,5.309723
0.26519173,0.6512305,0.0482331,-0.3758721,0.3669921,0.26711068,0.0,0.0,2,4.919458
0.265514,0.64412916,0.01935553,-0.31897548,0.38063854,0.27292934,0.0,0.0,2,4.809254
0.2654972,0.6383686,-0.014655851,-0.2595468,0.3944767,0.27676293,0.0,0.0,2,3.016365
0.26499423,0.63374823,-0.06263999,-0.20883454,0.40770468,0.26455933,0.0,0.0,0,-1.283633
0.2644906,0.6290328,-0.06263141,-0.21316801,0.4209325,0.26455614,0.0,0.0,0,-1.275759
0.2639864,0.62422216,-0.06262257,-0.21750145,0.43416014,0.26455295,0.0,0.0,0,-1.267899
0.26348153,0.6193165,-0.062613465,-0.2218348,0.44738764,0.2645498,0.0,0.0,0,-1.260017
0.26297578,0.6143157,-0.06260409,-0.22616807,0.46061498,0.2645466,0.0,0.0,0,-1.252143
0.26246947,0.6092198,-0.062594466,-0.23050123,0.47384217,0.2645434,0.0,0.0,0,-1.244267
0.2619625,0.60402876,-0.06258457,-0.23483433,0.4870692,0.26454023,0.0,0.0,0,-1.236398
0.26145476,0.5987426,-0.062574424,-0.2391673,0.50029606,0.26453707,0.0,0.0,0,-1.228535
0.26094636,0.5933612,-0.06256401,-0.2435002,0.51352274,0.26453388,0.0,0.0,0,-1.220690
0.2604371,0.5878847,-0.062553346,-0.24783303,0.52674925,0.26453072,0.0,0.0,0,-1.212863
0.2599271,0.582313,-0.06254242,-0.25216573,0.53997564,0.2645275,0.0,0.0,2,0.693293
0.25890455,0.5776047,-0.1132607,-0.2137156,0.5526915,0.25431803,0.0,0.0,2,-1.336847
0.2574795,0.5734086,-0.152913,-0.19082709,0.5648094,0.2423571,0.0,0.0,2,-2.372175
0.25544825,0.57025653,-0.21304528,-0.14432928,0.5764424,0.23266038,0.0,0.0,2,-3.072330
0.25307313,0.5675063,-0.24694255,-0.12636498,0.5875804,0.22275922,0.0,0.0,0,-0.956261
0.25069743,0.56466013,-0.24693398,-0.13069367,0.5987182,0.2227573,0.0,0.0,0,-0.952869
0.24832106,0.5617182,-0.24692528,-0.1350223,0.609856,0.22275539,0.0,0.0,0,-0.949332
0.24594411,0.5586804,-0.24691641,-0.13935085,0.6209937,0.22275352,0.0,0.0,0,-0.945677
0.2435666,0.55554664,-0.24690743,-0.14367934,0.6321313,0.22275165,0.0,0.0,0,-0.941890
0.24118833,0.55231714,-0.24689826,-0.14800777,0.64326876,0.22274974,0.0,0.0,0,-0.937978
0.2388095,0.5489917,-0.24688902,-0.1523361,0.65440613,0.2227478,0.0,0.0,2,-2.845481
0.23611288,0.5461199,-0.27848366,-0.13218108,0.66541153,0.22010747,0.0,0.0,2,-4.500505
0.23293772,0.5437982,-0.32585487,-0.10759138,0.67590773,0.20992458,0.0,0.0,0,-0.839957
0.22976199,0.54138035,-0.32584628,-0.11191861,0.6864039,0.20992298,0.0,0.0,0,-0.836597
0.22658558,0.5388665,-0.32583758,-0.116245784,0.69689995,0.2099214,0.0,0.0,0,-0.833134
0.2234085,0.53625655,-0.32582876,-0.1205729,0.7073959,0.20991981,0.0,0.0,0,-0.829608
0.22023086,0.5335506,-0.32581982,-0.12489995,0.7178918,0.20991822,0.0,0.0,0,-0.825982
0.21705255,0.5307486,-0.3258108,-0.12922694,0.7283876,0.20991664,0.0,0.0,0,-0.822269
0.21387358,0.52785045,-0.32580164,-0.13355385,0.7388833,0.20991501,0.0,0.0,0,-0.818461
0.21069393,0.5248561,-0.32579234,-0.13788073,0.749379,0.20991342,0.0,0.0,3,0.189410
0.20757075,0.5218356,-0.318509,-0.1381083,0.7577539,0.16749819,0.0,0.0,3,0.575268
0.20451069,0.5188103,-0.3102682,-0.13717167,0.76356536,0.116229154,0.0,0.0,3,0.501940
0.2015009,0.515744,-0.30391857,-0.13816142,0.767589,0.08047243,0.0,0.0,0,-0.179436
0.198491,0.5125807,-0.30391717,-0.14248241,0.7716126,0.080472365,0.0,0.0,0,-0.175434
0.19548102,0.5093203,-0.30391574,-0.14680338,0.7756362,0.08047227,0.0,0.0,0,-0.171336
0.19247083,0.5059629,-0.3039143,-0.15112434,0.7796598,0.080472186,0.0,0.0,0,-0.167150
0.18946066,0.50250846,-0.30391288,-0.15544532,0.7836834,0.0804721,0.0,0.0,0,-0.162873
0.18645039,0.49895698,-0.30391145,-0.15976627,0.78770703,0.08047204,0.0,0.0,0,-0.158494
0.18344001,0.49530846,-0.30391,-0.16408724,0.79173064,0.08047195,0.0,0.0,0,-0.154018
0.18042955,0.4915628,-0.30390853,-0.16840819,0.79575425,0.08047184,0.0,0.0,0,-0.149460
0.1774189,0.48772016,-0.3039071,-0.17272915,0.79977787,0.08047175,0.0,0.0,0,-0.144814
0.17440815,0.48378053,-0.30390564,-0.1770501,0.8038015,0.080471665,0.0,0.0,0,-0.140055
0.1713973,0.47974378,-0.30390415,-0.18137103,0.807825,0.080471545,0.0,0.0,3,0.628055
0.1684225,0.4756812,-0.29905388,-0.18165824,0.8100761,0.04502237,0.0,0.0,3,1.276903
0.16551037,0.4716237,-0.29087815,-0.18009457,0.80958897,-0.009742744,0.0,0.0,3,1.324942
0.16265526,0.46754152,-0.2836527,-0.18013614,0.80693454,-0.053088658,0.0,0.0,3,1.408750
0.1598465,0.46343386,-0.27763608,-0.18031046,0.8023161,-0.09236846,0.0,0.0,0,0.713557
0.15703754,0.45922938,-0.27763417,-0.18463172,0.7976977,-0.09236832,0.0,0.0,0,0.718525
0.1542284,0.45492783,-0.27763224,-0.18895297,0.7930793,-0.09236817,0.0,0.0,0,0.723583
0.15141916,0.45052922,-0.27763033,-0.19327423,0.7884609,-0.09236805,0.0,0.0,0,0.728722
0.14860992,0.44603372,-0.27762845,-0.19759546,0.7838425,-0.09236793,0.0,0.0,0,0.733976
0.1458005,0.44144112,-0.27762654,-0.20191672,0.7792241,-0.092367806,0.0,0.0,0,0.739313
0.14299087,0.43675154,-0.27762467,-0.206238,0.7746057,-0.09236764,0.0,0.0,3,1.752305
0.14023276,0.4320476,-0.2708401,-0.20584361,0.76777077,-0.13669834,0.0,0.0,3,2.214135
0.1375391,0.42734772,-0.26237458,-0.20441766,0.75820875,-0.19124082,0.0,0.0,3,2.472803
0.13490877,0.42265263,-0.2539631,-0.20300314,0.745934,-0.24549504,0.0,0.0,3,2.326542
0.13232413,0.41792366,-0.24792914,-0.2037725,0.73186153,-0.2814497,0.0,0.0,3,2.764883
0.1297986,0.41318142,-0.24009211,-0.20341581,0.7154408,-0.32841465,0.0,0.0,0,1.898725
0.12727165,0.40834475,-0.24006967,-0.20775276,0.6990204,-0.32840854,0.0,0.0,0,1.904088
0.124742985,0.40341353,-0.24004765,-0.21208996,0.68260026,-0.32840246,0.0,0.0,0,1.909523
0.12221289,0.39838803,-0.24002609,-0.21642737,0.66618043,-0.3283963,0.0,0.0,0,1.915070
0.11968136,0.39326808,-0.24000493,-0.22076502,0.6497609,-0.32839018,0.0,0.0,0,1.920703
0.1171483,0.38805377,-0.23998418,-0.2251029,0.63334167,-0.3283841,0.0,0.0,0,1.926411
0.11461391,0.38274524,-0.23996389,-0.229441,0.6169228,-0.328378,0.0,0.0,0,1.932215
0.11207809,0.3773424,-0.23994407,-0.23377936,0.6005042,-0.32837185,0.0,0.0,0,1.938111
0.10954094,0.3718453,-0.23992471,-0.23811787,0.58408594,-0.3283657,0.0,0.0,0,1.944076
0.10700245,0.3662541,-0.23990579,-0.24245663,0.56766796,-0.32835963,0.0,0.0,0,1.950130
0.10446272,0.36056864,-0.23988733,-0.24679558,0.5512503,-0.32835355,0.0,0.0,0,1.956266
0.10192175,0.35478902,-0.23986933,-0.25113472,0.5348329,-0.32834744,0.0,0.0,0,1.962463
0.09937964,0.34891534,-0.2398518,-0.25547406,0.5184158,-0.3283413,0.0,0.0,0,1.968745
0.096836284,0.34294754,-0.23983479,-0.2598136,0.501999,-0.3283352,0.0,0.0,0,1.975096
0.09429169,0.3368857,-0.23981825,-0.2641533,0.48558256,-0.32832912,0.0,0.0,0,1.981521
0.09174605,0.3307297,-0.2398022,-0.2684932,0.4691664,-0.328323,0.0,0.0,0,1.987997
0.089199446,0.3244798,-0.23978665,-0.27283326,0.45275053,-0.3283169,0.0,0.0,0,1.994551
0.08665161,0.3181359,-0.23977157,-0.2771735,0.436335,-0.32831085,0.0,0.0,0,2.001165
0.084102914,0.31169802,-0.23975702,-0.28151387,0.41991976,-0.32830474,0.0,0.0,0,2.007835
0.081553176,0.3051663,-0.23974295,-0.28585443,0.40350482,-0.32829863,0.0,0.0,0,2.014572
0.079002574,0.29854068,-0.23972937,-0.2901951,0.38709018,-0.32829252,0.0,0.0,3,3.135933
0.07653608,0.29187512,-0.22891268,-0.29153767,0.3682447,-0.37690967,0.0,0.0,3,3.125342
0.07413568,0.28516102,-0.22034006,-0.2934808,0.34747392,-0.41541582,0.0,0.0,3,3.203252
0.071793176,0.27839565,-0.21277352,-0.29566136,0.3250028,-0.4494233,0.0,0.0,3,3.608194
0.0695323,0.27158356,-0.20222673,-0.29759482,0.30024204,-0.49521512,0.0,0.0,0,2.839762
0.0672698,0.26468205,-0.20220304,-0.30196372,0.27548236,-0.49519426,0.0,0.0,0,2.846483
0.065005876,0.25769126,-0.20218115,-0.30633295,0.2507237,-0.4951733,0.0,0.0,0,2.853252
0.06274052,0.2506112,-0.2021611,-0.3107026,0.22596608,-0.49515232,0.0,0.0,0,2.860066
0.060474016,0.24344188,-0.20214288,-0.3150725,0.20120952,-0.4951314,0.0,0.0,0,2.866942
0.05820637,0.23618324,-0.20212653,-0.31944272,0.17645401,-0.4951105,0.0,0.0,0,2.873844
0.055937864,0.2288355,-0.20211205,-0.32381317,0.15169954,-0.4950896,0.0,0.0,0,2.880790
0.0536685,0.2213987,-0.20209944,-0.32818386,0.12694612,-0.49506864,0.0,0.0,0,2.887789
0.051398467,0.2138727,-0.20208871,-0.3325548,0.102193765,-0.49504775,0.0,0.0,0,2.894830
0.049127866,0.2062576,-0.20207986,-0.33692586,0.07744245,-0.49502692,0.0,0.0,0,2.901905
0.046856977,0.19855343,-0.20207293,-0.34129706,0.052692164,-0.49500602,0.0,0.0,2,7.839313
0.04463339,0.1921418,-0.19775084,-0.28427756,0.028387593,-0.4860917,0.0,0.0,2,5.568487
0.042420484,0.18652204,-0.19679604,-0.2494819,0.0042112065,-0.48352808,0.0,0.0,2,3.552585
0.040262222,0.18229753,-0.19161326,-0.1878652,-0.019692399,-0.47807232,0.0,0.0,0,-2.230462
0.038104057,0.17798331,-0.19161381,-0.19223315,-0.04359507,-0.4780534,0.0,0.0,0,-2.226017
0.03594618,0.17357948,-0.19161607,-0.19660106,-0.06749679,-0.47803456,0.0,0.0,0,-2.221486
0.03378868,0.16908611,-0.19162005,-0.20096892,-0.09139757,-0.47801572,0.0,0.0,0,-2.216860
0.031631567,0.16450311,-0.19162574,-0.20533668,-0.11529741,-0.4779969,0.0,0.0,0,-2.212157
0.029475117,0.1598304,-0.19163316,-0.20970435,-0.1391963,-0.47797805,0.0,0.0,0,-2.207395
0.027319241,0.1550681,-0.19164228,-0.21407188,-0.16309428,-0.47795925,0.0,0.0,0,-2.202570
0.025164317,0.15021601,-0.19165309,-0.21843927,-0.18699129,-0.47794038,0.0,0.0,0,-2.197709
0.023010159,0.14527418,-0.19166557,-0.22280645,-0.21088736,-0.47792155,0.0,0.0,0,-2.192837
0.02085724,0.14024256,-0.19167978,-0.22717342,-0.23478247,-0.4779027,0.0,0.0,0,-2.187967
0.018705463,0.13512118,-0.19169566,-0.23154016,-0.25867665,-0.47788388,0.0,0.0,0,-2.183114
0.016554927,0.1299099,-0.19171318,-0.23590662,-0.28256992,-0.47786513,0.0,0.0,0,-2.178315
0.014405822,0.12460872,-0.19173239,-0.24027279,-0.3064622,-0.47784632,0.0,0.0,0,-2.173622
0.012258339,0.11921762,-0.19175324,-0.24463865,-0.3303536,-0.47782755,0.0,0.0,0,-2.169050
0.010112477,0.11373647,-0.19177572,-0.24900417,-0.35424402,-0.47780877,0.0,0.0,1,-2.367677
0.00788517,0.10822192,-0.2023931,-0.2502565,-0.37573558,-0.42983064,0.0,0.0,1,-2.165042
0.005576706,0.10266467,-0.21284178,-0.25184074,-0.3948995,-0.38327786,0.0,0.0,1,-1.873118
0.0031939507,0.097072445,-0.22250292,-0.2530206,-0.41181937,-0.3383979,0.0,0.0,0,-1.446673
0.000812149,0.09138652,-0.22251709,-0.25736272,-0.42873892,-0.33839118,0.0,0.0,0,-1.445606
-0.0015685081,0.08560682,-0.2225318,-0.26170465,-0.44565815,-0.33838454,0.0,0.0,0,-1.445753
-0.003948116,0.07973328,-0.22254708,-0.26604643,-0.46257704,-0.33837786,0.0,0.0,1,-1.689704
-0.0064118383,0.07382034,-0.23329541,-0.26721224,-0.47703707,-0.28920057,0.0,0.0,1,-1.364126
-0.008935261,0.06785961,-0.2410243,-0.26887956,-0.4896612,-0.25248238,0.0,0.0,1,-1.293070
-0.011545086,0.061862122,-0.2519849,-0.26978293,-0.49974096,-0.20159547,0.0,0.0,0,-0.786470
-0.014154529,0.055768643,-0.25199097,-0.27411038,-0.50982064,-0.20159404,0.0,0.0,0,9.191938
-0.016763497,0.049579177,-0.25199717,-0.2784378,-0.51990026,-0.2015926,1.0,0.0,0,3.111135
-0.019422913,0.04436196,-0.26804402,-0.23195757,-0.51376355,0.12827161,1.0,0.0,0,4.777976
-0.022011185,0.040140662,-0.27934974,-0.18005964,-0.49075413,0.4600268,1.0,0.0,0,5.563192
-0.02452879,0.03680707,-0.28788143,-0.13584957,-0.4506971,0.80114686,1.0,0.0,0,5.812153
-0.026988411,0.03405169,-0.29413557,-0.107845545,-0.39839894,1.0460182,1.0,0.0,3,-4.595679
-0.029385854,0.031164989,-0.28605828,-0.116120145,-0.34922606,0.9835003,0.0,0.0,3,5.220005
-0.03171549,0.028183732,-0.2784385,-0.12220075,-0.30178607,0.9488376,0.0,0.0,3,5.089170
-0.03396864,0.025103554,-0.26958898,-0.1283771,-0.25626415,0.9104754,0.0,0.0,3,4.969340
-0.036131762,0.021919236,-0.25887138,-0.13469082,-0.21302809,0.8647558,0.0,0.0,0,4.072936
-0.03829193,0.018662676,-0.25896937,-0.13913165,-0.16979913,0.8646142,0.0,0.0,0,4.035073
-0.04044981,0.015334091,-0.25906023,-0.14357723,-0.12657803,0.8644575,0.0,0.0,0,3.997288
-0.042606257,0.011933551,-0.25914305,-0.14802551,-0.08336438,0.86430806,0.0,0.0,0,3.960024
-0.044762038,0.008461092,-0.25921798,-0.15247665,-0.04015822,0.86415845,0.0,0.0,3,4.298713
-0.046839904,0.0049079154,-0.2495277,-0.1573289,0.0010815131,0.82482845,0.0,0.0,3,6.493249
-0.048837088,0.001284287,-0.2393908,-0.16155349,0.04027335,0.7838689,0.0,1.0,3,1.401653
-0.050809573,-0.001699009,-0.21656911,-0.13349931,0.05836676,0.36057565,0.0,1.0,3,2.748296
-0.05283804,-0.0041163587,-0.20015857,-0.10733486,0.055711627,-0.053112287,0.0,1.0,0,3.547744
-0.054985046,-0.005994978,-0.19341746,-0.08284093,0.034631707,-0.42166018,0.0,1.0,0,13.973348
-0.05720625,-0.00755563,-0.18893695,-0.0689257,0.0018007102,-0.65670955,1.0,1.0,3,0.123256
-0.059179973,-0.008514144,-0.17560992,-0.042810842,-0.018545698,-0.40548587,1.0,1.0,3,1.134985
-0.06084738,-0.008865442,-0.15816751,-0.015749976,-0.02699845,-0.1690337,1.0,1.0,3,1.422967
-0.06227026,-0.00853503,-0.14396536,0.014708546,-0.025341129,0.033150844,1.0,1.0,0,0.536473
-0.063582614,-0.0075485134,-0.13714437,0.043927833,-0.019506764,0.11668275,1.0,1.0,0,-0.053441
-0.064853,-0.006030097,-0.13129507,0.0675355,-0.01529898,0.084158525,1.0,1.0,0,-0.410532
-0.066116236,-0.004178479,-0.12721296,0.08231082,-0.014415566,0.017683687,1.0,1.0,0,-0.348957
-0.06738281,-0.0022220754,-0.12525776,0.0869489,-0.015775247,-0.027170146,1.0,1.0,0,0.178452
-0.06863918,-0.0004046464,-0.12490553,0.08076612,-0.016504783,-0.014594691,1.0,1.0,0,-19.973237
-0.069896415,0.001314292,-0.12492732,0.07638785,-0.017281359,-0.015534927,0.0,0.0,0,0.013136
-0.07115345,0.0029359914,-0.12492132,0.072067484,-0.018056639,-0.015509076,0.0,0.0,0,0.000631
-0.07241039,0.0044604875,-0.124915875,0.06774621,-0.01883155,-0.0155013455,0.0,0.0,0,-0.053646
-0.07367392,0.0058772657,-0.1251641,0.06295135,-0.02000834,-0.023535803,0.0,0.0,3,0.578747
-0.07486286,0.0071909763,-0.11579422,0.05834178,-0.02306333,-0.061100155,0.0,0.0,3,0.249532
-0.07599153,0.0084118815,-0.10824938,0.054185446,-0.027627425,-0.09128179,0.0,0.0,3,0.328521
-0.07703857,0.009523425,-0.09798861,0.04926247,-0.03425181,-0.13248768,0.0,0.0,3,0.173560
-0.077996634,0.010536084,-0.08683717,0.04477442,-0.043110143,-0.17716724,0.0,0.0,0,-0.802899
-0.0789547,0.011452542,-0.08683753,0.04044779,-0.051968466,-0.17716655,0.0,0.0,3,-0.120867
-0.07983379,0.012267576,-0.07694648,0.03581147,-0.062810995,-0.2168504,0.0,0.0,3,-0.319429
-0.08063479,0.012983189,-0.06716068,0.031211358,-0.07561579,-0.25609612,0.0,0.0,3,-0.667778
-0.081376076,0.013596878,-0.05968503,0.02648322,-0.089924775,-0.28617936,0.0,0.0,3,-0.692527
-0.082046606,0.014098201,-0.05081144,0.021226404,-0.106035024,-0.32220522,0.0,0.0,3,-0.697517
-0.08262634,0.0144976,-0.039464384,0.016332014,-0.12442723,-0.3678441,0.0,0.0,0,8.866987
-0.08305816,0.015175805,-0.037332755,0.029642316,-0.13025336,-0.11652239,1.0,0.0,0,-0.357641
-0.08348255,0.015776262,-0.037223555,0.026223063,-0.13543966,-0.103725865,1.0,0.0,3,0.500668
-0.08377962,0.01634017,-0.024794623,0.024608577,-0.14033419,-0.097890586,1.0,0.0,3,0.211019
-0.08398771,0.01685451,-0.016312625,0.02242964,-0.14481933,-0.08970271,1.0,0.0,3,0.209617
-0.08409338,0.017315207,-0.0065263673,0.02007439,-0.14885348,-0.08068298,1.0,0.0,0,-0.032832
-0.084191225,0.017698655,-0.006409881,0.016703514,-0.15222536,-0.06743751,1.0,0.0,0,0.028269
-0.08428125,0.018005215,-0.0062917047,0.013344014,-0.15492931,-0.054079004,1.0,0.0,0,0.084691
-0.08436327,0.018234883,-0.0061721234,0.009993954,-0.15696062,-0.040626314,1.0,0.0,0,0.129424
-0.08443737,0.018387733,-0.0060514533,0.006651224,-0.15831564,-0.027100349,1.0,0.0,0,0.144221
-0.08450346,0.018463908,-0.0059300205,0.0033136457,-0.15899174,-0.013522306,1.0,0.0,0,0.093251
-0.08456154,0.018463407,-0.0058081616,-2.1036747e-05,-0.15898743,8.590026e-05,1.0,0.0,0,-0.017125
-0.08461199,0.01838673,-0.0057258937,-0.0033341039,-0.15830804,0.013588277,1.0,0.0,0,-0.090494
-0.08465958,0.018239602,-0.006068179,-0.0064033316,-0.15700158,0.02612923,1.0,0.0,0,-0.068754
-0.0847043,0.018021736,-0.0064086765,-0.0094795935,-0.15507025,0.03862635,1.0,0.0,0,-0.024580
-0.084746264,0.01773313,-0.00674734,-0.01256386,-0.15251617,0.05108148,1.0,0.0,0,0.028342
-0.08478527,0.0173735,-0.007083581,-0.015658697,-0.14934213,0.063480556,1.0,0.0,0,0.084763
-0.08482151,0.016942844,-0.0074167997,-0.01876664,-0.14555168,0.07580894,1.0,0.0,0,0.142567
-0.0848548,0.016440734,-0.007746442,-0.021890104,-0.14114904,0.088052705,1.0,0.0,0,0.200695
-0.08488522,0.015867028,-0.008071976,-0.025031352,-0.13613914,0.10019841,1.0,0.0,0,0.258630
-0.08491278,0.015221367,-0.008392908,-0.028192457,-0.13052745,0.11223338,1.0,0.0,0,0.316038
-0.084937476,0.014503393,-0.008708788,-0.031375326,-0.124320194,0.12414549,1.0,0.0,0,0.372722
-0.08495941,0.013712892,-0.009019209,-0.034581605,-0.11752398,0.13592377,1.0,0.0,0,0.428555
-0.08497839,0.012849364,-0.009323796,-0.03781279,-0.11014609,0.14755799,1.0,0.0,0,0.483416
-0.08499451,0.011912451,-0.009622244,-0.041070163,-0.1021941,0.15903953,1.0,0.0,3,0.842405
-0.084904864,0.01096302,0.0008971894,-0.041665565,-0.094192654,0.16002905,1.0,0.0,3,0.595991
-0.08473949,0.009981261,0.008246058,-0.043135725,-0.08597554,0.1643421,1.0,0.0,3,0.490476
-0.084488675,0.008969924,0.016589338,-0.044486783,-0.07757016,0.16810784,1.0,0.0,3,0.405389
-0.08415146,0.007932053,0.025072869,-0.04570302,-0.069005735,0.17128848,1.0,0.0,3,0.343512
-0.08373146,0.006860778,0.03311878,-0.047228884,-0.060228042,0.17555381,1.0,0.0,0,0.719122
-0.0833087,0.005714295,0.032846663,-0.050600585,-0.050901458,0.18653156,1.0,0.0,0,2.096804
-0.08291807,0.0046749925,0.026035566,-0.045797188,-0.038034417,0.25734347,1.0,0.0,0,-9.049147
-0.082527444,0.0035407757,0.026033264,-0.050129283,-0.02516669,0.2573546,0.0,0.0,0,0.942265
-0.08213673,0.0023115373,0.026032645,-0.054463282,-0.012299112,0.25735167,0.0,0.0,0,0.821067
-0.0817461,0.0009873128,0.026032299,-0.058797285,0.00056832214,0.25734872,0.0,0.0,0,8.354279
-0.08135538,-0.00043189764,0.026032219,-0.06313129,0.013435606,0.25734583,0.0,1.0,3,-0.112098
-0.080928326,-0.0016427183,0.039289534,-0.054018866,0.01616001,0.053676795,0.0,1.0,3,0.989132
-0.0805129,-0.0025984072,0.050808597,-0.042410906,0.0069717946,-0.18380412,0.0,1.0,0,12.929008
-0.08014164,-0.002650013,0.04038668,-0.0023016732,0.0037819531,-0.06376229,1.0,1.0,0,-1.013199
-0.079791546,-0.0018323683,0.033379637,0.03633015,0.0054026176,0.032427408,1.0,1.0,0,-0.207682
-0.0795538,-0.0008216763,0.03149844,0.04492043,-0.002206938,-0.1521624,1.0,1.0,0,-0.226174
-0.07929973,6.448984e-05,0.032107983,0.039356247,-0.0087982975,-0.13179573,1.0,1.0,0,-10.308315
-0.079041675,0.0008637881,0.03215704,0.035468087,-0.015051441,-0.12503676,1.0,0.0,0,-0.289666
-0.07877674,0.0015835143,0.032244764,0.03191776,-0.02070696,-0.11308875,1.0,0.0,0,-0.244645
-0.07850466,0.0022238826,0.03233405,0.028378926,-0.025758706,-0.10101696,1.0,0.0,0,-0.201217
-0.078225516,0.002784965,0.03242478,0.024850784,-0.030200986,-0.08883034,1.0,0.0,0,-0.141807
-0.07794313,0.0032707667,0.032143667,0.021506839,-0.03405987,-0.07716499,1.0,0.0,0,-0.100886
-0.0776578,0.0036815382,0.03185982,0.018174196,-0.03733149,-0.06542191,1.0,0.0,0,-0.062253
-0.07736921,0.0040173507,0.03157363,0.014851449,-0.04001248,-0.053610902,1.0,0.0,0,-0.026307
-0.07707758,0.004278276,0.031285465,0.011537,-0.04209998,-0.04174258,1.0,0.0,0,0.006754
-0.0767827,0.0044644214,0.030995708,0.008229179,-0.04359168,-0.029828027,1.0,0.0,0,0.036879
-0.07648468,0.0045758937,0.030704772,0.004926247,-0.0444859,-0.017878892,1.0,0.0,0,0.064373
-0.07618351,0.0046127294,0.030413106,0.0016264054,-0.04478147,-0.005907189,1.0,0.0,0,0.089855
-0.07587929,0.0045748926,0.030121144,-0.0016721924,-0.044477902,0.006074791,1.0,0.0,0,0.114301
-0.07557182,0.0044624186,0.029829258,-0.004971409,-0.04357534,0.018054612,1.0,0.0,0,0.138770
-0.07526131,0.0042753434,0.02953797,-0.008273112,-0.042074468,0.030019749,1.0,0.0,0,0.164365
-0.07494764,0.004013524,0.029247722,-0.011579151,-0.039976694,0.041957736,1.0,0.0,0,0.191955
-0.07463074,0.0036769246,0.028958961,-0.014891331,-0.03728396,0.05385644,1.0,0.0,0,0.222045
-0.07431078,0.0032653667,0.028672103,-0.018211404,-0.03399884,0.06570373,1.0,0.0,0,0.254857
-0.07398768,0.0027788496,0.028387547,-0.021541068,-0.030124495,0.077487946,1.0,0.0,0,0.290297
-0.073661424,0.0022171235,0.028105702,-0.024881916,-0.025664637,0.08919814,1.0,0.0,0,0.328084
-0.073332116,0.0015800452,0.027826931,-0.028235432,-0.020623496,0.100823626,1.0,0.0,0,0.367853
-0.07299967,0.0008675075,0.027551586,-0.03160302,-0.015005804,0.1123543,1.0,0.0,0,0.409175
-0.072664164,7.915258e-05,0.027279953,-0.03498591,-0.008816772,0.12378107,1.0,0.0,0,0.451645
-0.07232561,-0.00078505516,0.02701236,-0.03838529,-0.0020619933,0.13509537,1.0,0.0,0,12.824871
-0.07213678,-0.000791564,0.018871758,-0.00029246853,-0.0020651775,-7.259728e-05,1.0,1.0,0,0.122015
-0.07195835,-0.00078555587,0.017834267,0.00026514728,-0.002061307,6.571334e-05,1.0,1.0,0,0.103306
-0.071788505,-0.00078534125,0.016973473,5.555539e-06,-0.002060849,1.3705655e-06,1.0,1.0,0,0.107581
-0.07162781,-0.0007854128,0.016058637,-1.7161113e-06,-0.0020605593,-4.335996e-07,1.0,1.0,0,0.106843
-0.07147636,-0.0007854128,0.015141902,-6.039607e-08,-0.0020602965,-1.5948567e-08,1.0,1.0,0,0.105897
-0.07133408,-0.0007854128,0.014225436,1.1667959e-08,-0.0020600674,1.36938905e-08,1.0,1.0,0,0.104974
-0.071200944,-0.0007854128,0.013309012,6.9163746e-09,-0.0020598727,2.0044363e-10,1.0,1.0,0,0.104044
-0.07107706,-0.0007854128,0.012392601,1.872039e-09,-0.002059719,-1.5751233e-08,1.0,1.0,0,0.103126
-0.07096233,-0.0007854128,0.011476191,-3.9120743e-10,-0.0020595926,-1.7343805e-08,1.0,1.0,0,0.102208
-0.070856765,-0.0007854128,0.01055978,-5.639214e-10,-0.0020594897,-1.6273102e-08,1.0,1.0,0,0.101291
-0.07076035,-0.0007854128,0.009643368,-8.821707e-12,-0.0020594036,-1.8492774e-08,1.0,1.0,0,0.100374
-0.070673086,-0.0007854128,0.008726957,3.8274703e-10,-0.0020593263,-1.6179504e-08,1.0,1.0,0,0.099456
-0.07059498,-0.0007854128,0.007810547,4.3693346e-10,-0.0020592732,-1.696109e-08,1.0,1.0,0,0.098541
-0.070526026,-0.0007854128,0.0068941377,7.557918e-10,-0.0020592215,-1.6909521e-08,1.0,1.0,0,0.097625
-0.070466235,-0.0007854128,0.0059777275,7.191023e-10,-0.0020591775,-2.1015921e-08,1.0,1.0,0,0.096708
-0.07041559,-0.0007854128,0.005061317,3.2756123e-10,-0.002059144,-2.1522878e-08,1.0,1.0,0,0.095792
-0.07037411,-0.0007854128,0.0041449075,-1.7894488e-11,-0.0020591156,-2.1453419e-08,1.0,1.0,0,0.094876
-0.07034178,-0.0007854128,0.0032284972,1.9155998e-10,-0.002059097,-2.1473543e-08,1.0,1.0,0,0.093950
-0.0703187,-0.0007854128,0.0023120868,-7.311226e-11,-0.0020590848,-2.2399167e-08,1.0,1.0,0,0.093034
-0.070304774,-0.0007854128,0.001395676,-1.416103e-10,-0.0020590741,-2.0547446e-08,1.0,1.0,0,0.092118
-0.070300005,-0.0007854128,0.00047926558,3.4185424e-10,-0.0020590704,-2.1970738e-08,1.0,1.0,0,0.033748
-0.070301436,-0.0007854128,-0.0001425283,-1.262877e-07,-0.0020569004,4.2081636e-05,1.0,1.0,0,-0.010511
-0.07030382,-0.0007854128,-0.0002490306,-2.2204391e-07,-0.0020531272,7.351591e-05,1.0,1.0,0,0.013395
-0.07030497,-0.0007854128,-0.000115704686,-1.0324326e-07,-0.0020513562,3.4158867e-05,1.0,1.0,0,0.010997
-0.07030487,-0.0007854128,5.7345137e-06,4.7979842e-09,-0.002051448,-1.6934115e-06,1.0,1.0,0,-0.003590
-0.07030449,-0.0007854128,4.138776e-05,3.6778168e-08,-0.0020520727,-1.2218053e-05,1.0,1.0,0,0.001622
-0.0703042,-0.0007854128,2.5072692e-05,2.2137673e-08,-0.0020524575,-7.4027375e-06,1.0,1.0,0,0.002219
-0.0703042,-0.0007854128,2.8509862e-06,2.6954547e-09,-0.002052487,-8.434271e-07,1.0,1.0,0,-0.000345
-0.0703043,-0.0007854128,-6.3036155e-06,-5.8582335e-09,-0.0020523856,1.8611981e-06,1.0,1.0,0,0.000128
-0.070304394,-0.0007854128,-5.030471e-06,-4.525903e-09,-0.0020522822,1.4859678e-06,1.0,1.0,0,0.000383
-0.070304394,-0.0007854128,-1.2239334e-06,-1.1309926e-09,-0.0020522615,3.674394e-07,1.0,1.0,0,0.000037
-0.070304394,-0.0007854128,8.4164714e-07,7.91666e-10,-0.0020522752,-2.4743184e-07,1.0,1.0,0,-0.000011
-0.070304394,-0.0007854128,9.471507e-07,9.1606567e-10,-0.0020522827,-2.827171e-07,1.0,1.0,0,0.000060
-0.070304394,-0.0007854128,3.448767e-07,3.30624e-10,-0.0020522892,-1.17658075e-07,1.0,1.0,0,0.000026
-0.070304394,-0.0007854128,-8.545147e-08,-2.0011659e-10,-0.0020522885,1.456892e-08,1.0,1.0,0,-0.000008
-0.070304394,-0.0007854128,-1.6915082e-07,-1.4984375e-10,-0.002052286,4.8758807e-08,1.0,1.0,0,0.000009
-0.070304394,-0.0007854128,-8.335777e-08,6.023417e-11,-0.0020522852,1.2853464e-08,1.0,1.0,0,0.000008
-0.070304394,-0.0007854128,3.952622e-09,-8.282803e-11,-0.002052286,-1.2773846e-08,1.0,1.0,0,-0.000003
-0.070304394,-0.0007854128,3.0601527e-08,1.6923027e-11,-0.002052286,-2.0822968e-08,1.0,1.0,0,0.000001
-0.070304394,-0.0007854128,2.133372e-08,-2.6013355e-11,-0.0020522869,-2.0103043e-08,1.0,1.0,0,0.000001
-0.070304394,-0.0007854128,9.4914885e-09,1.3401197e-11,-0.0020522887,-2.3596394e-08,1.0,1.0,0,0.000001
-0.070304394,-0.0007854128,1.8612242e-10,2.759646e-11,-0.0020522887,-2.2995166e-09,1.0,1.0,0,-0.000001
-0.070304394,-0.0007854128,-7.2034942e-09,-2.4119426e-10,-0.0020522876,1.8143304e-08,1.0,1.0,0,100
0.0022091866,1.4146979,0.22374149,0.16790392,-0.0025530076,-0.050680734,0.0,0.0,0,-0.397660
0.004418182,1.4184008,0.2234391,0.16456337,-0.0050573293,-0.050090324,0.0,0.0,0,-0.359629
0.0066272737,1.422007,0.22344701,0.16026415,-0.0075601945,-0.05006225,0.0,0.0,0,-0.353151
0.00883646,1.4255159,0.22345443,0.15593931,-0.010062735,-0.050055604,0.0,0.0,0,-0.348496
0.011045742,1.4289277,0.22346182,0.15161687,-0.012564888,-0.050047792,0.0,0.0,0,-0.343847
0.013255119,1.4322423,0.22346923,0.14729479,-0.015066642,-0.050039906,0.0,0.0,0,-0.339300
0.015464497,1.4354597,0.2234766,0.14297275,-0.017567994,-0.050032146,0.0,0.0,0,-0.334882
0.01767397,1.4385802,0.22348396,0.13865064,-0.020068964,-0.050024312,0.0,0.0,0,-0.330595
0.019883633,1.4416034,0.22349131,0.13432845,-0.022569561,-0.05001648,0.0,0.0,0,-0.326424
0.022093296,1.4445293,0.22349863,0.13000624,-0.025069755,-0.05000875,0.0,0.0,0,-0.322401
0.024303054,1.4473581,0.22350593,0.12568395,-0.027569555,-0.050000966,0.0,0.0,0,-0.318532
0.026512813,1.45009,0.2235132,0.12136161,-0.03006898,-0.049993318,0.0,0.0,0,-0.314769
0.028722763,1.4527246,0.22352044,0.117039226,-0.03256803,-0.04998565,0.0,0.0,0,-0.311158
0.030932808,1.4552621,0.22352767,0.11271679,-0.035066698,-0.049978025,0.0,0.0,0,-0.307682
0.033142757,1.4577024,0.22353485,0.10839429,-0.037564985,-0.049970396,0.0,0.0,0,-0.304330
0.035352897,1.4600453,0.223542,0.104071744,-0.040062875,-0.04996281,0.0,0.0,0,-0.301136
0.037563134,1.4622912,0.22354913,0.09974914,-0.042560413,-0.04995524,0.0,0.0,0,-0.298076
0.039773464,1.4644401,0.22355624,0.09542649,-0.045057576,-0.049947716,0.0,0.0,0,-0.295134
0.041983794,1.4664916,0.22356328,0.09110379,-0.047554348,-0.04994022,0.0,0.0,0,-0.292346
0.04419422,1.4684459,0.22357032,0.08678104,-0.050050743,-0.04993274,0.0,0.0,0,-0.289694
0.04640484,1.4703032,0.22357735,0.082458235,-0.052546773,-0.0499253,0.0,0.0,0,-0.287183
0.048615456,1.4720634,0.22358432,0.07813537,-0.05504246,-0.0499179,0.0,0.0,0,-0.284776
0.050826073,1.4737264,0.22359128,0.07381246,-0.05753777,-0.04991052,0.0,0.0,0,-0.282488
0.05303688,1.4752921,0.2235982,0.0694895,-0.060032688,-0.04990318,0.0,0.0,0,-0.280342
0.055247687,1.4767606,0.22360508,0.065166496,-0.062527254,-0.049895868,0.0,0.0,0,-0.242628
0.057457734,1.4781106,0.22352128,0.059891567,-0.06502175,-0.04988999,0.0,0.0,0,-0.275352
0.059667684,1.4793636,0.22352123,0.055571042,-0.06751627,-0.04988999,0.0,0.0,0,-0.273579
0.061877728,1.4805193,0.22352119,0.05125052,-0.070010774,-0.04989011,0.0,0.0,0,-0.271923
0.06408777,1.4815779,0.22352114,0.046930004,-0.07250529,-0.049890302,0.0,0.0,0,-0.270363
0.066297725,1.4825393,0.22352108,0.04260948,-0.07499981,-0.049890507,0.0,0.0,0,-0.268907
0.06850777,1.4834038,0.22352104,0.038288962,-0.077494346,-0.049890704,0.0,0.0,0,-0.267505
0.07071781,1.4841709,0.223521,0.033968445,-0.0799889,-0.049890943,0.0,0.0,0,-0.266206
0.072927855,1.4848411,0.22352095,0.029647924,-0.08248346,-0.04989112,0.0,0.0,0,-0.264959
0.0751379,1.4854143,0.2235209,0.025327405,-0.08497804,-0.049891185,0.0,0.0,0,-0.263764
0.07734795,1.4858902,0.2235208,0.021006886,-0.087472595,-0.049891155,0.0,0.0,0,-0.262628
0.07955799,1.486269,0.22352073,0.016686367,-0.089967154,-0.049891133,0.0,0.0,0,-0.261534
0.081768036,1.4865506,0.22352068,0.012365848,-0.09246171,-0.04989111,0.0,0.0,0,-0.260468
0.08397808,1.4867351,0.22352059,0.008045329,-0.09495628,-0.049891114,0.0,0.0,0,-0.259441
0.08618812,1.4868227,0.22352049,0.0037248102,-0.09745082,-0.04989108,0.0,0.0,0,-0.258408
0.08839826,1.486813,0.22352043,-0.0005957085,-0.09994539,-0.049891055,0.0,0.0,0,-0.257401
0.09060831,1.4867063,0.22352032,-0.004916227,-0.10243995,-0.049891025,0.0,0.0,0,-0.256369
0.09281836,1.4865023,0.22352025,-0.009236745,-0.10493451,-0.049891002,0.0,0.0,0,-0.255348
0.0950285,1.4862013,0.22352019,-0.013557264,-0.107429065,-0.04989099,0.0,0.0,0,-0.254293
0.09723864,1.4858031,0.22352012,-0.017877782,-0.109923616,-0.049891002,0.0,0.0,0,-0.253205
0.09944868,1.4853079,0.22352001,-0.022198297,-0.112418175,-0.049890984,0.0,0.0,0,-0.252078
0.10165882,1.4847156,0.22351992,-0.026518814,-0.11491272,-0.049890973,0.0,0.0,0,-0.250906
0.10386896,1.4840261,0.22351983,-0.030839331,-0.11740727,-0.049890965,0.0,0.0,0,-0.249676
0.1060791,1.4832394,0.22351973,-0.03515985,-0.11990181,-0.049890943,0.0,0.0,0,-0.248382
0.108289145,1.4823556,0.22351964,-0.039480373,-0.12239636,-0.04989093,0.0,0.0,0,-0.247032
0.11049938,1.4813749,0.22351953,-0.04380089,-0.1248909,-0.04989092,0.0,0.0,0,-0.245575
0.11270952,1.4802969,0.22351944,-0.048121408,-0.12738547,-0.0498909,0.0,0.0,0,-0.244058
0.11491966,1.4791218,0.22351936,-0.05244193,-0.12988003,-0.049890865,0.0,0.0,0,-0.242435
0.1171298,1.4778497,0.22351925,-0.056762442,-0.13237457,-0.04989084,0.0,0.0,0,-0.240701
0.11933994,1.4764802,0.22351916,-0.06108296,-0.13486911,-0.049890842,0.0,0.0,0,-0.238894
0.12155018,1.4750139,0.22351906,-0.06540348,-0.13736367,-0.04989084,0.0,0.0,0,-0.236959
0.12376032,1.4734503,0.22351894,-0.06972398,-0.13985823,-0.049890835,0.0,0.0,0,-0.234914
0.12597056,1.4717896,0.22351882,-0.074044496,-0.14235277,-0.049890824,0.0,0.0,0,-0.232754
0.12818079,1.4700317,0.2235187,-0.078365006,-0.14484733,-0.04989081,0.0,0.0,0,-0.230488
0.13039103,1.468177,0.22351861,-0.082685515,-0.14734188,-0.049890794,0.0,0.0,0,-0.228067
0.13260126,1.4662249,0.22351849,-0.087006025,-0.14983642,-0.04989078,0.0,0.0,0,-0.225554
0.13481149,1.4641758,0.2235184,-0.09132655,-0.15233096,-0.0498908,0.0,0.0,0,-0.222881
0.13702174,1.4620295,0.22351828,-0.09564707,-0.15482552,-0.049890764,0.0,0.0,0,-0.220109
0.13923196,1.4597862,0.22351816,-0.099967584,-0.15732008,-0.049890745,0.0,0.0,0,-0.217175
0.14144221,1.4574456,0.22351804,-0.104288094,-0.15981463,-0.04989075,0.0,0.0,0,-0.214137
0.14365253,1.455008,0.2235179,-0.1086086,-0.16230915,-0.04989072,0.0,0.0,0,-0.210958
0.14586277,1.4524733,0.22351778,-0.11292912,-0.16480368,-0.04989069,0.0,0.0,0,-0.207648
0.1480731,1.4498414,0.22351766,-0.11724964,-0.16729823,-0.04989066,0.0,0.0,0,-0.204201
0.15028343,1.4471124,0.2235175,-0.121570155,-0.16979276,-0.04989065,0.0,0.0,0,-0.200626
0.15249367,1.4442863,0.22351739,-0.12589067,-0.17228727,-0.04989062,0.0,0.0,0,-0.196938
0.1547039,1.4413632,0.22351727,-0.13021119,-0.17478181,-0.0498906,0.0,0.0,0,-0.193102
0.15691414,1.4383429,0.22351715,-0.1345317,-0.17727633,-0.0498906,0.0,0.0,0,-0.189129
0.15912437,1.4352255,0.22351703,-0.13885222,-0.17977086,-0.049890812,0.0,0.0,0,-0.185040
0.1613346,1.4320108,0.2235169,-0.14317274,-0.18226539,-0.049890764,0.0,0.0,0,-0.180848
0.16354494,1.4286991,0.22351678,-0.14749327,-0.18475991,-0.049890555,0.0,0.0,0,-0.176515
0.16575518,1.4252903,0.22351666,-0.15181378,-0.18725444,-0.049890663,0.0,0.0,0,-0.172045
0.1679655,1.4217844,0.2235165,-0.15613429,-0.18974896,-0.04989063,0.0,0.0,1,0.890008
0.17009822,1.4182115,0.21372171,-0.15885176,-0.19020279,-0.0090766605,0.0,0.0,1,0.788269
0.17217188,1.4145553,0.20632105,-0.16236752,-0.18914385,0.021178665,0.0,0.0,1,1.068010
0.17417403,1.4108114,0.19736172,-0.16602741,-0.18627596,0.057357915,0.0,0.0,0,0.363006
0.17617626,1.4069707,0.19736151,-0.17034811,-0.18340805,0.057357866,0.0,0.0,0,0.368107
0.1781785,1.4030328,0.19736132,-0.17466877,-0.18054017,0.057357837,0.0,0.0,0,0.373333
0.18018064,1.3989978,0.19736114,-0.17898944,-0.17767228,0.057357788,0.0,0.0,0,0.378660
0.18218288,1.3948658,0.19736095,-0.18331012,-0.17480439,0.057357766,0.0,0.0,0,0.384128
0.18418512,1.3906364,0.19736077,-0.18763082,-0.17193651,0.05735772,0.0,0.0,0,0.389677
0.18618746,1.3863101,0.19736059,-0.1919515,-0.16906865,0.05735769,0.0,0.0,0,0.395351
0.1881897,1.3818867,0.19736041,-0.19627216,-0.16620077,0.05735765,0.0,0.0,0,0.401106
0.19019194,1.3773663,0.19736025,-0.20059283,-0.16333291,0.057357617,0.0,0.0,0,0.406990
0.19219427,1.3727486,0.19736007,-0.20491351,-0.16046503,0.057357598,0.0,0.0,0,0.412935
0.19419661,1.3680339,0.1973599,-0.2092342,-0.15759715,0.057357572,0.0,0.0,0,0.418974
0.19619894,1.3632222,0.19735976,-0.21355486,-0.15472928,0.05735753,0.0,0.0,0,0.425123
0.19820127,1.3583133,0.19735959,-0.21787554,-0.15186141,0.05735751,0.0,0.0,0,0.431317
0.20020361,1.3533075,0.19735943,-0.2221962,-0.14899352,0.05735748,0.0,0.0,0,0.437621
0.20220605,1.3482044,0.19735928,-0.22651692,-0.14612566,0.05735746,0.0,0.0,0,0.443995
0.20420837,1.3430042,0.19735911,-0.2308376,-0.1432578,0.05735741,0.0,0.0,0,0.450422
0.2062108,1.337707,0.19735897,-0.23515828,-0.14038993,0.057357334,0.0,0.0,0,0.456933
0.20821314,1.3323127,0.19735882,-0.23947896,-0.13752207,0.0573573,0.0,0.0,0,0.463506
0.21021557,1.3268213,0.19735867,-0.24379963,-0.13465421,0.05735727,0.0,0.0,0,0.470125
0.212218,1.3212328,0.19735852,-0.24812031,-0.13178635,0.057357244,0.0,0.0,1,1.489521
0.21412449,1.3155625,0.18531404,-0.25155118,-0.12648322,0.106062874,0.0,0.0,1,1.420334
0.21596022,1.309803,0.17644742,-0.2553859,-0.11939552,0.14175424,0.0,0.0,1,1.689172
0.21771975,1.3039696,0.16685951,-0.25856778,-0.110350005,0.18090986,0.0,0.0,0,1.095791
0.21947947,1.2980398,0.16685832,-0.2628946,-0.101304546,0.18090884,0.0,0.0,0,1.102952
0.22123918,1.2920141,0.16685721,-0.2672214,-0.092259146,0.18090783,0.0,0.0,0,1.110160
0.2229991,1.2858922,0.16685623,-0.2715482,-0.0832138,0.18090683,0.0,0.0,0,1.117403
0.22475891,1.2796743,0.16685532,-0.27587503,-0.0741685,0.18090577,0.0,0.0,0,1.124703
0.22651891,1.2733603,0.1668545,-0.28020185,-0.065123275,0.18090478,0.0,0.0,0,1.132014
0.22827892,1.2669501,0.16685377,-0.28452867,-0.05607809,0.18090376,0.0,0.0,0,1.139382
0.23003903,1.2604437,0.16685314,-0.2888555,-0.047032945,0.1809028,0.0,0.0,0,1.146761
0.23179913,1.2538412,0.1668526,-0.29318234,-0.037987854,0.18090178,0.0,0.0,0,1.154152
0.23355922,1.2471427,0.16685215,-0.2975092,-0.028942825,0.18090074,0.0,0.0,0,1.161582
0.23531933,1.240348,0.1668518,-0.30183604,-0.01989784,0.18089965,0.0,0.0,0,1.169031
0.23707953,1.2334572,0.16685155,-0.30616286,-0.0108529115,0.18089864,0.0,0.0,0,1.176494
0.23883972,1.2264704,0.16685139,-0.3104897,-0.0018080369,0.18089762,0.0,0.0,0,-0.263380
0.24059992,1.2193873,0.16685131,-0.31481653,0.0072367904,0.18089662,0.0,0.0,0,-0.617497
0.24236003,1.2122083,0.16685133,-0.31914335,0.016281562,0.18089566,0.0,0.0,0,-0.609988
0.24412021,1.2049332,0.16685143,-0.32347018,0.025326297,0.18089466,0.0,0.0,1,-0.453315
0.24581166,1.1975546,0.15823653,-0.32816142,0.03609923,0.21545863,0.0,0.0,1,-0.623272
0.24742118,1.1900696,0.14795163,-0.3330329,0.048937947,0.25677422,0.0,0.0,1,-0.912976
0.2489706,1.1824766,0.14043038,-0.3379955,0.06329278,0.2870968,0.0,0.0,1,-1.056831
0.2504344,1.1747699,0.12967636,-0.34330973,0.07982045,0.3305535,0.0,0.0,0,-1.327411
0.251898,1.1669695,0.12967876,-0.34765255,0.09634781,0.3305473,0.0,0.0,0,-1.319671
0.2533613,1.1590756,0.12968175,-0.35199532,0.11287486,0.3305411,0.0,0.0,0,-1.311924
0.25482434,1.1510881,0.12968531,-0.35633808,0.1294016,0.33053488,0.0,0.0,0,-1.304209
0.2562871,1.1430072,0.12968943,-0.3606808,0.14592803,0.33052862,0.0,0.0,0,-1.296473
0.25774938,1.1348325,0.1296941,-0.36502343,0.16245416,0.3305224,0.0,0.0,0,-1.288789
0.25921136,1.1265644,0.12969933,-0.36936602,0.17897996,0.3305162,0.0,0.0,0,-1.281077
0.26067296,1.1182024,0.12970513,-0.37370855,0.19550546,0.33050996,0.0,0.0,0,-1.273420
0.262134,1.1097472,0.12971148,-0.37805095,0.21203063,0.3305037,0.0,0.0,0,-1.265750
0.26359454,1.101198,0.1297184,-0.38239333,0.2285555,0.33049747,0.0,0.0,0,-1.258132
0.2650546,1.0925553,0.12972587,-0.38673562,0.24508005,0.33049124,0.0,0.0,0,-1.250518
0.266514,1.0838189,0.12973389,-0.39107785,0.26160428,0.33048502,0.0,0.0,0,-1.242943
0.26797277,1.0749887,0.12974247,-0.39541999,0.27812824,0.33047876,0.0,0.0,0,-1.235389
0.26943073,1.066065,0.1297516,-0.39976203,0.29465187,0.3304726,0.0,0.0,0,-1.227862
0.27088824,1.0570472,0.12976125,-0.40410393,0.3111752,0.33046636,0.0,0.0,0,-1.220385
0.2723449,1.0479361,0.12977146,-0.40844575,0.32769817,0.33046013,0.0,0.0,2,4.316728
0.2734622,1.0398922,0.09623554,-0.36110178,0.34389088,0.3238545,0.0,0.0,2,2.712387
0.27452946,1.0327672,0.090530165,-0.32063007,0.36092228,0.34062883,0.0,0.0,2,4.462304
0.27512532,1.0267516,0.044166747,-0.2713248,0.3772273,0.32610053,0.0,0.0,2,2.551553
0.27555427,1.0216049,0.027226621,-0.23296878,0.39391237,0.33370197,0.0,0.0,0,-1.605246
0.2759823,1.0163646,0.02723975,-0.2373104,0.41059715,0.3336956,0.0,0.0,0,-1.596526
0.27640933,1.0110303,0.02725341,-0.24165185,0.4272816,0.33368915,0.0,0.0,0,-1.587832
0.27683535,1.0056024,0.027267614,-0.24599315,0.44396573,0.33368275,0.0,0.0,0,-1.579122
0.2772603,1.0000805,0.027282342,-0.25033432,0.46064955,0.3336763,0.0,0.0,2,0.604265
0.27766448,0.99505234,0.024679262,-0.22877453,0.47805756,0.3481601,0.0,0.0,0,-1.690416
0.2780674,0.9899307,0.024696454,-0.2331172,0.49546522,0.34815285,0.0,0.0,0,-1.681700
0.278469,0.98471534,0.024714237,-0.23745964,0.5128725,0.3481456,0.0,0.0,0,-1.673003
0.27886933,0.9794063,0.0247326,-0.2418019,0.53027946,0.34813833,0.0,0.0,2,0.109546
0.27895147,0.97443366,-0.006415336,-0.22682305,0.54709274,0.33626604,0.0,0.0,2,1.658100
0.27887544,0.9702446,-0.022759369,-0.19243763,0.56469434,0.35203236,0.0,0.0,0,-1.777481
0.27879792,0.9659619,-0.022738848,-0.19677971,0.58229566,0.35202485,0.0,0.0,0,-1.768608
0.27871895,0.9615854,-0.022717748,-0.20112154,0.5998965,0.3520173,0.0,0.0,0,-1.759762
0.27863836,0.9571152,-0.022696082,-0.2054631,0.617497,0.35200977,0.0,0.0,0,-1.750909
0.27855617,0.9525513,-0.022673845,-0.2098044,0.63509715,0.35200223,0.0,0.0,0,-1.742030
0.27847233,0.9478934,-0.022651052,-0.21414545,0.65269685,0.35199472,0.0,0.0,0,-1.733180
0.27838677,0.94314164,-0.022627711,-0.21848623,0.67029625,0.35198718,0.0,0.0,0,-1.724292
0.27829963,0.9382958,-0.022603825,-0.22282673,0.6878952,0.35197967,0.0,0.0,0,-1.715434
0.27821055,0.933356,-0.0225794,-0.22716695,0.7054938,0.35197216,0.0,0.0,0,-1.706572
0.27811986,0.92832214,-0.022554446,-0.23150687,0.72309196,0.3519646,0.0,0.0,0,-1.697712
0.27802736,0.92319417,-0.022528969,-0.23584649,0.74068975,0.35195708,0.0,0.0,0,-1.688861
0.27793282,0.9179721,-0.022502981,-0.2401858,0.75828725,0.3519496,0.0,0.0,0,-1.680002
0.2778365,0.9126558,-0.02247649,-0.2445248,0.77588433,0.35194203,0.0,0.0,0,-1.671152
0.27773818,0.9072451,-0.022449499,-0.2488635,0.79348105,0.35193452,0.0,0.0,3,-0.836648
0.27770272,0.90183365,-0.014107777,-0.24775909,0.8084447,0.29927284,0.0,0.0,3,-0.792727
0.27771997,0.8963967,-0.0072372993,-0.24797872,0.82133776,0.25786135,0.0,0.0,3,-0.385780
0.27780294,0.89096075,0.0013019291,-0.24664125,0.83150154,0.20327525,0.0,0.0,3,-0.281750
0.27794296,0.88550764,0.008648264,-0.24630083,0.8393737,0.1574435,0.0,0.0,0,-0.694181
0.27808246,0.879958,0.008654039,-0.25062433,0.8472459,0.15744278,0.0,0.0,0,-0.685292
0.2782216,0.87431145,0.008659854,-0.25494778,0.855118,0.1574421,0.0,0.0,0,-0.676470
0.27836037,0.86856854,0.00866571,-0.2592712,0.86299,0.1574414,0.0,0.0,0,-0.667633
0.27849865,0.8627288,0.008671607,-0.2635946,0.87086207,0.15744075,0.0,0.0,0,-0.658848
0.27863663,0.8567924,0.008677544,-0.267918,0.87873405,0.15744007,0.0,0.0,0,-0.650075
0.27877417,0.8507594,0.008683519,-0.2722413,0.88660604,0.15743943,0.0,0.0,0,-0.641326
0.2789112,0.84462965,0.008689535,-0.2765646,0.89447796,0.15743877,0.0,0.0,0,-0.632612
0.2790478,0.83840317,0.008695589,-0.28088787,0.9023499,0.15743807,0.0,0.0,0,-0.623926
0.27918395,0.83208007,0.008701683,-0.2852111,0.91022176,0.1574374,0.0,0.0,0,-0.615285
0.27931976,0.82566035,0.008707813,-0.28953427,0.91809356,0.1574367,0.0,0.0,0,-0.606651
0.2794551,0.8191438,0.008713981,-0.29385743,0.92596537,0.157436,0.0,0.0,0,-0.598067
0.27958995,0.8125305,0.0087201875,-0.29818055,0.9338371,0.15743531,0.0,0.0,3,0.315353
0.2797764,0.8059393,0.01566833,-0.29564536,0.9388001,0.09925952,0.0,0.0,3,0.484799
0.28000966,0.7993562,0.02190189,-0.29386848,0.941168,0.04735863,0.0,0.0,3,0.789135
0.28029108,0.79279006,0.028379118,-0.29161662,0.94076633,-0.00803306,0.0,0.0,0,0.228671
0.2805724,0.78612643,0.028379137,-0.29593664,0.94036466,-0.00803305,0.0,0.0,0,0.236987
0.28085384,0.77936584,0.028379153,-0.30025664,0.939963,-0.008033068,0.0,0.0,0,0.245297
0.28113526,0.77250785,0.028379172,-0.3045766,0.9395613,-0.008033086,0.0,0.0,3,0.907190
0.28146744,0.7656421,0.034871865,-0.30363443,0.9367888,-0.055449657,0.0,0.0,3,0.998994
0.2818305,0.75875247,0.039055444,-0.3037303,0.9322349,-0.0910782,0.0,0.0,3,1.209967
0.28224105,0.7518429,0.045093182,-0.30348662,0.92557716,-0.13315381,0.0,0.0,0,0.879124
0.28265134,0.74483657,0.04509764,-0.3078088,0.9189195,-0.1331534,0.0,0.0,0,0.887003
0.2830612,0.73773354,0.045102082,-0.31213102,0.91226184,-0.13315296,0.0,0.0,0,0.894845
0.2834708,0.7305335,0.045106497,-0.31645328,0.90560424,-0.13315254,0.0,0.0,3,1.434303
0.2839306,0.7233137,0.05150516,-0.3162052,0.8967991,-0.17610268,0.0,0.0,3,1.671921
0.2844309,0.7160813,0.056968372,-0.31570736,0.8858895,-0.2181921,0.0,0.0,0,1.326924
0.2849304,0.7087525,0.056980014,-0.3200336,0.87498,-0.21819034,0.0,0.0,0,1.334320
0.28542918,0.70132774,0.056991547,-0.32435995,0.86407053,-0.2181885,0.0,0.0,0,1.341669
0.285927,0.69380665,0.057002973,-0.3286864,0.8531612,-0.21818674,0.0,0.0,0,1.348922
0.28642416,0.6861895,0.057014298,-0.3330129,0.84225196,-0.21818498,0.0,0.0,0,1.356102
0.28692046,0.67847604,0.057025515,-0.3373395,0.8313428,-0.21818313,0.0,0.0,0,1.363167
0.28741607,0.6706666,0.05703662,-0.34166616,0.82043374,-0.21818134,0.0,0.0,0,1.370147
0.28791085,0.662761,0.057047613,-0.34599292,0.8095248,-0.21817954,0.0,0.0,0,1.377027
0.28840485,0.6547593,0.057058495,-0.35031977,0.7986159,-0.21817775,0.0,0.0,0,1.383799
0.28889808,0.64666146,0.05706927,-0.35464665,0.7877071,-0.21817593,0.0,0.0,0,1.390453
0.28939056,0.6384675,0.057079934,-0.35897365,0.77679837,-0.21817414,0.0,0.0,3,1.916849
0.2899335,0.6302579,0.06380715,-0.3587098,0.763715,-0.26166654,0.0,0.0,0,1.612345
0.29047537,0.62195295,0.063822135,-0.3630401,0.75063187,-0.26166347,0.0,0.0,0,1.618524
0.29101628,0.6135523,0.06383691,-0.36737055,0.7375488,-0.2616604,0.0,0.0,0,1.624548
0.29155606,0.6050561,0.06385148,-0.3717011,0.72446597,-0.26165733,0.0,0.0,0,1.630393
0.292095,0.5964646,0.063865855,-0.3760318,0.7113832,-0.2616543,0.0,0.0,0,1.636097
0.29263276,0.5877775,0.06388001,-0.3803626,0.6983007,-0.26165122,0.0,0.0,0,1.641616
0.29316968,0.57899505,0.06389395,-0.38469353,0.68521833,-0.26164812,0.0,0.0,0,1.646955
0.29370555,0.57011706,0.06390767,-0.3890246,0.6721361,-0.26164505,0.0,0.0,0,1.652080
0.29424056,0.56114376,0.06392117,-0.39335576,0.65905404,-0.26164198,0.0,0.0,0,1.657008
0.29477462,0.55207497,0.06393446,-0.39768702,0.64597213,-0.2616389,0.0,0.0,0,1.661692
0.29530773,0.5429109,0.06394751,-0.4020184,0.6328904,-0.26163584,0.0,0.0,0,1.666137
0.29583997,0.5336514,0.06396036,-0.40634993,0.61980885,-0.26163274,0.0,0.0,0,1.670339
0.29637128,0.5242966,0.063972965,-0.41068158,0.60672736,-0.2616297,0.0,0.0,0,1.674248
0.2969018,0.5148464,0.063985355,-0.4150133,0.59364605,-0.2616266,0.0,0.0,0,1.677871
0.29743147,0.5053009,0.06399751,-0.4193452,0.58056486,-0.26162353,0.0,0.0,0,1.681174
0.29796028,0.49566007,0.06400942,-0.42367712,0.56748384,-0.26162046,0.0,0.0,2,4.281111
0.29808035,0.48646912,0.023819072,-0.40353453,0.5537158,-0.2753613,0.0,0.0,2,7.519910
0.2978325,0.47859237,-0.013605192,-0.3455288,0.54078925,-0.25853127,0.0,0.0,0,1.548359
0.29758388,0.47062033,-0.013594262,-0.3498608,0.52786285,-0.25852832,0.0,0.0,0,1.553436
0.2973345,0.46255302,-0.013583566,-0.35419285,0.51493657,-0.25852537,0.0,0.0,0,1.558274
0.29708442,0.45439047,-0.0135731045,-0.358525,0.50201046,-0.2585224,0.0,0.0,2,5.027077
0.29625997,0.44713256,-0.07017197,-0.31814775,0.48824286,-0.27535203,0.0,0.0,0,1.611078
0.29543477,0.43977973,-0.07016065,-0.32248172,0.47447544,-0.27534842,0.0,0.0,0,1.616466
0.29460868,0.43233198,-0.07014962,-0.3268158,0.46070823,-0.27534485,0.0,0.0,0,1.621681
0.29378194,0.4247892,-0.07013889,-0.33115003,0.44694117,-0.27534124,0.0,0.0,0,1.626683
0.29295444,0.41715154,-0.07012844,-0.33548433,0.4331743,-0.27533764,0.0,0.0,2,5.332575
0.29175338,0.4106121,-0.107383266,-0.28678647,0.41938707,-0.27574494,0.0,0.0,0,1.582335
0.29055175,0.40397775,-0.107373394,-0.291121,0.40560004,-0.27574134,0.0,0.0,0,1.587596
0.28934938,0.39724854,-0.10736382,-0.29545557,0.39181316,-0.27573773,0.0,0.0,0,1.592708
0.28814632,0.39042443,-0.107354544,-0.2997903,0.37802646,-0.27573413,0.0,0.0,2,3.822819
0.2867732,0.3842924,-0.12445197,-0.26918963,0.36440727,-0.2723844,0.0,0.0,2,3.037914
0.2850031,0.3790257,-0.16345926,-0.23070097,0.3501306,-0.2855335,0.0,0.0,0,1.607849
0.2832324,0.37366426,-0.1634503,-0.23503698,0.3358541,-0.28552943,0.0,0.0,0,1.612493
0.28146115,0.36820817,-0.16344169,-0.23937307,0.32157785,-0.28552544,0.0,0.0,0,1.617109
0.2796893,0.3626575,-0.16343343,-0.24370928,0.3073018,-0.28552145,0.0,0.0,2,4.479239
0.27784976,0.35806733,-0.17080332,-0.20128435,0.29371455,-0.2717448,0.0,0.0,2,3.860341
0.27597064,0.354346,-0.17537752,-0.16292022,0.28081474,-0.25799617,0.0,0.0,0,1.409876
0.27409115,0.35052967,-0.17537159,-0.1672536,0.26791507,-0.25799322,0.0,0.0,0,1.413109
0.27221125,0.34661818,-0.17536592,-0.17158705,0.25501555,-0.25799024,0.0,0.0,0,1.416433
0.270331,0.34261167,-0.17536053,-0.17592055,0.24211618,-0.2579873,0.0,0.0,0,1.419855
0.26845044,0.3385101,-0.17535537,-0.18025407,0.22921696,-0.25798434,0.0,0.0,2,2.091627
0.2663432,0.33521613,-0.19758731,-0.14441355,0.21593185,-0.26570243,0.0,0.0,0,1.467048
0.2642358,0.3318273,-0.19758241,-0.148748,0.20264688,-0.2656992,0.0,0.0,0,1.469549
0.26212797,0.32834345,-0.1975778,-0.1530825,0.1893621,-0.265696,0.0,0.0,0,1.472162
0.26001987,0.32476473,-0.19757348,-0.15741703,0.17607746,-0.26569277,0.0,0.0,0,1.474895
0.2579115,0.32109112,-0.19756946,-0.16175158,0.162793,-0.26568955,0.0,0.0,2,2.378432
0.25562316,0.31839567,-0.21525678,-0.118369386,0.14922488,-0.2713624,0.0,0.0,0,1.506168
0.25333452,0.3156053,-0.21525319,-0.12270465,0.13565692,-0.271359,0.0,0.0,0,1.507781
0.2510457,0.31272033,-0.2152499,-0.12703994,0.12208916,-0.2713555,0.0,0.0,0,1.509561
0.24875669,0.3097405,-0.21524692,-0.13137527,0.108521566,-0.27135208,0.0,0.0,0,1.511474
0.24646759,0.3066659,-0.21524425,-0.13571061,0.09495413,-0.27134866,0.0,0.0,0,1.513528
0.2441782,0.3034966,-0.21524191,-0.14004597,0.08138689,-0.2713452,0.0,0.0,0,1.515716
0.24188872,0.30023253,-0.21523988,-0.14438136,0.0678198,-0.27134174,0.0,0.0,0,1.518033
0.23959914,0.2968737,-0.21523814,-0.14871678,0.05425286,-0.2713383,0.0,0.0,0,1.520462
0.23730955,0.29342008,-0.21523674,-0.1530522,0.04068612,-0.2713349,0.0,0.0,0,1.523012
0.23501988,0.28987178,-0.21523564,-0.15738764,0.027119543,-0.27133146,0.0,0.0,0,1.525683
0.2327301,0.28622863,-0.21523485,-0.16172308,0.013553149,-0.271328,0.0,0.0,0,1.525826
0.23044033,0.28249076,-0.2152344,-0.16605853,-1.30680755e-05,-0.27132457,0.0,0.0,0,-1.181914
0.22815056,0.2786582,-0.21523425,-0.17039396,-0.013579126,-0.27132112,0.0,0.0,0,-1.178930
0.22586079,0.2747309,-0.21523444,-0.1747294,-0.027144998,-0.27131766,0.0,0.0,0,-1.175865
0.2235711,0.2707087,-0.21523495,-0.17906485,-0.04071071,-0.2713142,0.0,0.0,0,-1.172731
0.22128144,0.26659185,-0.21523575,-0.1834003,-0.054276254,-0.27131078,0.0,0.0,0,-1.169538
0.21899195,0.2623802,-0.21523687,-0.18773572,-0.06784161,-0.27130735,0.0,0.0,0,-1.166293
0.21670255,0.25807387,-0.2152383,-0.19207114,-0.08140681,-0.27130395,0.0,0.0,1,-1.838344
0.21431465,0.25367785,-0.22759175,-0.1960252,-0.09249475,-0.221759,0.0,0.0,1,-1.385254
0.21186009,0.2491846,-0.2359663,-0.20031147,-0.10191149,-0.18833481,0.0,0.0,0,-0.715107
0.20940551,0.24459536,-0.23596737,-0.2046389,-0.11132817,-0.18833365,0.0,0.0,0,-0.711657
0.20695114,0.23991008,-0.23596856,-0.2089663,-0.12074479,-0.18833251,0.0,0.0,0,-0.708208
0.20449677,0.2351289,-0.23596986,-0.21329372,-0.13016137,-0.18833137,0.0,0.0,0,-0.704764
0.20204258,0.23025157,-0.23597126,-0.2176211,-0.1395779,-0.18833023,0.0,0.0,1,-1.067222
0.1995266,0.22529913,-0.24376038,-0.22086257,-0.14739275,-0.15629722,0.0,0.0,1,-1.120496
0.1969204,0.22026052,-0.25508195,-0.22449951,-0.15292704,-0.110685624,0.0,0.0,1,-0.734323
0.19424772,0.21513213,-0.26340014,-0.22832963,-0.15678678,-0.07719527,0.0,0.0,0,-0.104017
0.19157505,0.20990676,-0.2634004,-0.23265086,-0.16064653,-0.07719518,0.0,0.0,0,-0.100720
0.18890238,0.20458439,-0.2634007,-0.2369721,-0.16450629,-0.07719509,0.0,0.0,0,-0.097530
0.1862298,0.19916505,-0.263401,-0.24129334,-0.16836603,-0.07719501,0.0,0.0,0,-0.094448
0.18355723,0.19364864,-0.26340133,-0.24561456,-0.17222577,-0.077194944,0.0,0.0,0,-0.091521
0.18088464,0.18803523,-0.26340163,-0.24993579,-0.17608552,-0.077194855,0.0,0.0,0,-0.088783
0.17821217,0.18232484,-0.263402,-0.25425702,-0.17994526,-0.077194765,0.0,0.0,0,-0.086227
0.17553958,0.1765174,-0.26340228,-0.25857827,-0.18380499,-0.07719469,0.0,0.0,0,-0.083954
0.17286721,0.17061304,-0.26340264,-0.26289952,-0.18766472,-0.07719461,0.0,0.0,0,-0.081938
0.17019472,0.16461161,-0.26340297,-0.26722077,-0.19152443,-0.077194534,0.0,0.0,0,-0.080272
0.16752224,0.1585132,-0.26340333,-0.27154198,-0.19538414,-0.07719442,0.0,0.0,0,-0.079007
0.16484985,0.15231779,-0.2634037,-0.2758632,-0.19924386,-0.077194355,0.0,0.0,2,6.143933
0.16252479,0.14734155,-0.22944069,-0.2215803,-0.20233208,-0.061764408,0.0,0.0,2,1.756472
0.16014071,0.14317876,-0.23451447,-0.1855502,-0.20625125,-0.0783835,0.0,0.0,0,-0.200930
0.15775672,0.13891898,-0.23451488,-0.18987146,-0.21017042,-0.0783834,0.0,0.0,0,-0.199568
0.15537271,0.13456221,-0.23451528,-0.19419271,-0.21408959,-0.0783833,0.0,0.0,0,-0.198375
0.15298872,0.13010839,-0.2345157,-0.19851395,-0.21800874,-0.07838322,0.0,0.0,0,-0.197418
0.15060481,0.12555765,-0.2345161,-0.20283522,-0.2219279,-0.07838314,0.0,0.0,0,-0.196704
0.14822093,0.12090984,-0.23451653,-0.20715646,-0.22584704,-0.078383066,0.0,0.0,0,-0.196316
0.14583711,0.11616505,-0.23451695,-0.21147773,-0.22976619,-0.07838297,0.0,0.0,0,-0.196280
0.14345321,0.11132327,-0.23451738,-0.21579899,-0.23368533,-0.07838288,0.0,0.0,0,-0.196702
0.1410695,0.10638443,-0.23451784,-0.22012024,-0.23760447,-0.07838279,0.0,0.0,0,-0.197621
0.1386857,0.10134867,-0.23451826,-0.2244415,-0.24152361,-0.07838274,0.0,0.0,0,-0.199153
0.136302,0.09621585,-0.23451872,-0.22876278,-0.24544273,-0.07838267,0.0,0.0,0,-0.201385
0.13391829,0.09098604,-0.23451917,-0.23308402,-0.24936186,-0.07838259,0.0,0.0,0,-0.204453
0.13153467,0.08565925,-0.23451963,-0.23740529,-0.253281,-0.07838249,0.0,0.0,2,4.210765
0.12939282,0.08121479,-0.21066573,-0.19814083,-0.2568742,-0.071864076,0.0,0.0,2,2.439083
0.12737894,0.07736586,-0.19789699,-0.17168076,-0.2604371,-0.071257904,0.0,0.0,2,2.859104
0.12544069,0.074481376,-0.18984449,-0.12891164,-0.26450458,-0.08134958,0.0,0.0,0,-0.334301
0.12350245,0.07149997,-0.18984504,-0.13323298,-0.26857206,-0.08134951,0.0,0.0,0,-0.336747
0.121564195,0.06842151,-0.18984559,-0.13755433,-0.27263954,-0.0813494,0.0,0.0,0,-0.339490
0.11962614,0.06524607,-0.18984613,-0.14187567,-0.27670702,-0.08134933,0.0,0.0,0,-0.342553
0.117687985,0.061973628,-0.18984668,-0.14619702,-0.28077447,-0.08134924,0.0,0.0,0,-0.346056
0.11574993,0.058604203,-0.18984726,-0.15051836,-0.28484192,-0.08134912,0.0,0.0,0,-0.350070
0.11381197,0.055137858,-0.18984784,-0.1548397,-0.28890938,-0.081349015,0.0,0.0,0,-0.354674
0.11187401,0.051574454,-0.18984844,-0.15916102,-0.29297683,-0.08134891,0.0,0.0,0,-0.359998
0.10993604,0.04791406,-0.18984903,-0.16348235,-0.29704428,-0.08134882,0.0,0.0,0,-0.366180
0.107998274,0.04415668,-0.18984963,-0.16780369,-0.30111173,-0.08134873,0.0,0.0,0,-0.373316
0.10606041,0.04030231,-0.18985024,-0.17212501,-0.30517915,-0.08134865,0.0,0.0,0,-0.381623
0.10412264,0.03635102,-0.18985087,-0.17644635,-0.3092466,-0.08134858,0.0,0.0,0,9.608766
0.102184966,0.032302603,-0.1898515,-0.18076767,-0.31331402,-0.08134852,1.0,0.0,0,3.359337
0.10027752,0.029180154,-0.20300797,-0.1365016,-0.29996672,0.26794466,1.0,0.0,0,4.443387
0.098470405,0.026781831,-0.2107697,-0.10072787,-0.2689523,0.6204044,1.0,0.0,0,5.182018
0.096773624,0.02478405,-0.21225703,-0.081583224,-0.22548907,0.8693808,1.0,0.0,0,4.025978
0.095049664,0.022680555,-0.21394551,-0.08768009,-0.18358856,0.83800983,1.0,0.0,0,-5.771109
0.09332838,0.020502888,-0.21399048,-0.09214406,-0.14169319,0.8379084,0.0,0.0,0,4.220014
0.09160938,0.01825112,-0.21402626,-0.096609145,-0.09980289,0.8378069,0.0,0.0,0,4.210698
0.08989172,0.015925465,-0.21405295,-0.1010751,-0.057917643,0.83770573,0.0,0.0,0,4.200838
0.08817492,0.013525853,-0.21407044,-0.10554166,-0.016037447,0.8376045,0.0,0.0,0,-0.977178
0.0864583,0.011052356,-0.21407871,-0.11000856,0.025837682,0.8375033,0.0,0.0,0,-4.194858
0.08474131,0.008505044,-0.21407776,-0.114475556,0.06770776,0.8374022,0.0,0.0,0,5.794159
0.08302307,0.0058838106,-0.21406758,-0.11894237,0.10957279,0.83730114,0.0,1.0,0,-9.841787
0.08126221,0.0039301254,-0.20254299,-0.089655675,0.13325803,0.4702379,0.0,0.0,0,11.314458
0.0793582,0.0025275445,-0.19547606,-0.06281594,0.13825016,0.09975134,0.0,1.0,0,2.856659
0.07733965,0.0016762471,-0.18856463,-0.036671754,0.12494777,-0.26613656,0.0,1.0,0,3.410002
0.075247094,0.0011512494,-0.18400608,-0.021421611,0.09979831,-0.5030597,0.0,1.0,0,3.247551
0.0731328,0.00066562655,-0.18251775,-0.019912692,0.07109091,-0.57420933,0.0,1.0,0,2.971033
0.071037576,6.316662e-05,-0.18170042,-0.025691325,0.043571852,-0.55040544,0.0,1.0,0,-7.105099
0.0689436,-0.00062777044,-0.1816198,-0.030136095,0.01611867,-0.54908514,0.0,0.0,0,10.613491
0.066849805,-0.0014055395,-0.18158527,-0.034504637,-0.011334234,-0.5490799,1.0,0.0,0,-0.928148
0.06489535,-0.0019032502,-0.18013522,-0.022445666,-0.025863247,-0.28983757,1.0,0.0,0,0.718890
0.063135624,-0.00204952,-0.17724355,-0.006485782,-0.024594804,0.025400203,1.0,0.0,0,1.684949
0.061516188,-0.0019564652,-0.17509797,0.0042984257,-0.011578342,0.26036507,1.0,0.0,0,0.753114
0.05995531,-0.001815095,-0.17425662,0.006321886,0.006391182,0.3594338,1.0,0.0,0,9.456266
0.058348082,-0.001553669,-0.17096584,0.011535644,0.016459228,0.20130984,1.0,1.0,0,-9.746621
0.05668707,-0.0010874653,-0.16767552,0.020698534,0.018003024,0.030859146,0.0,1.0,0,0.856138
0.054983996,-0.0004799986,-0.16507106,0.027052036,0.012828275,-0.103492334,0.0,1.0,0,1.136572
0.053260326,0.0001496768,-0.16374668,0.02803955,0.004331086,-0.16993393,0.0,1.0,0,0.412296
0.051551152,0.0006592965,-0.1632072,0.022653656,-0.003271452,-0.15205094,0.0,1.0,0,-10.536203
0.04984207,0.0010725355,-0.16320719,0.018328773,-0.010873981,-0.15205064,0.0,0.0,0,9.871215
0.048181437,0.0015095568,-0.16259453,0.019393358,-0.014296498,-0.068450436,1.0,0.0,0,-0.069843
0.04652796,0.0018672204,-0.16250415,0.015866257,-0.017104745,-0.05616494,1.0,0.0,0,-0.016248
0.04488163,0.0021456338,-0.16241293,0.012345624,-0.01929514,-0.04380794,1.0,0.0,0,0.037759
0.04324255,0.0023447967,-0.16232105,0.008830232,-0.020864788,-0.031393044,1.0,0.0,0,0.092099
0.04161062,0.0024647808,-0.16222867,0.005318746,-0.021811519,-0.018934852,1.0,0.0,0,0.146643
0.039986037,0.0025055862,-0.16213599,0.0018097796,-0.022133943,-0.0064481697,1.0,0.0,0,0.201316
0.038368702,0.0024672842,-0.16204312,-0.0016980724,-0.021831352,0.0060518505,1.0,0.0,0,0.255985
0.036758613,0.0023498393,-0.16195032,-0.0052062194,-0.020903863,0.018549833,1.0,0.0,0,0.310530
0.035155676,0.0021532155,-0.16185778,-0.008716077,-0.019352335,0.031030517,1.0,0.0,0,0.364799
0.033560086,0.0018774844,-0.16176565,-0.012229047,-0.017178401,0.043478638,1.0,0.0,0,0.418677
0.031971645,0.0015225387,-0.1616741,-0.015746502,-0.014384436,0.05587942,1.0,0.0,0,0.471979
0.030390358,0.0010882712,-0.16158332,-0.019269738,-0.010973524,0.068218336,1.0,0.0,0,0.524526
0.028816223,0.00057475327,-0.16149344,-0.022800054,-0.0069494424,0.08048155,1.0,0.0,0,0.576105
0.027249146,-1.815796e-05,-0.16140461,-0.026338648,-0.0023166563,0.09265584,1.0,0.0,0,11.073000
0.025705528,-2.2735596e-05,-0.15435779,-0.0002027464,-0.0023118549,9.409401e-05,1.0,1.0,0,0.252809
0.024171924,-1.880169e-05,-0.15335919,0.0001760104,-0.0023160072,-8.165677e-05,1.0,1.0,0,0.240443
0.022647094,-1.8730163e-05,-0.1524796,3.7337913e-06,-0.0023160903,-1.7365259e-06,1.0,1.0,0,0.243102
0.02113142,-1.8730163e-05,-0.15156427,-1.134301e-06,-0.0023160693,5.306839e-07,1.0,1.0,0,0.242286
0.0196249,-1.8730163e-05,-0.15064794,-4.077997e-08,-0.0023160677,2.4116716e-08,1.0,1.0,0,0.241389
0.018127631,-1.8730163e-05,-0.14973131,6.893254e-09,-0.0023160672,1.7632292e-09,1.0,1.0,0,0.240453
0.01663952,-1.8730163e-05,-0.14881489,6.7707493e-09,-0.0023160668,-3.166175e-10,1.0,1.0,0,0.239538
0.015160561,-1.8730163e-05,-0.14789847,6.7022423e-09,-0.0023160663,2.6204308e-10,1.0,1.0,0,0.238622
0.013690758,-1.8730163e-05,-0.14698204,5.336766e-09,-0.0023160658,1.20199e-09,1.0,1.0,0,0.237706
0.01223011,-1.8730163e-05,-0.14606564,4.249079e-09,-0.0023160656,-2.3875102e-09,1.0,1.0,0,0.236790
0.010778618,-1.8730163e-05,-0.14514923,2.9355869e-09,-0.0023160654,-4.018863e-09,1.0,1.0,0,0.235874
0.009336281,-1.8730163e-05,-0.14423282,1.3609154e-09,-0.0023160651,-5.5919065e-09,1.0,1.0,0,0.234959
0.007903099,-1.8730163e-05,-0.14331642,-1.14070184e-10,-0.0023160642,-5.9451235e-09,1.0,1.0,0,0.234043
0.0064790724,-1.8730163e-05,-0.1424,-1.361107e-09,-0.002316064,-5.2114837e-09,1.0,1.0,0,0.233127
0.0050642015,-1.8730163e-05,-0.14148359,-2.3669144e-09,-0.0023160637,-4.5703885e-09,1.0,1.0,0,0.232211
0.0036584854,-1.8730163e-05,-0.14056718,-2.969982e-09,-0.0023160635,-4.0604684e-09,1.0,1.0,0,0.231285
0.00226202,-1.8730163e-05,-0.13965078,-3.3705128e-09,-0.0023160628,3.174193e-09,1.0,1.0,0,0.230361
0.0008747101,-1.8730163e-05,-0.13873436,-3.2519831e-09,-0.002316062,3.318561e-09,1.0,1.0,0,0.128753
-0.0005034447,-1.8730163e-05,-0.13781795,-2.7828149e-09,-0.0023160614,3.6420693e-09,1.0,1.0,0,-0.045232
-0.0018724442,-1.8730163e-05,-0.13690153,-1.9365374e-09,-0.0023160612,-2.7768254e-09,1.0,1.0,0,-0.044339
-0.0032322884,-1.8730163e-05,-0.1359851,-9.583404e-10,-0.0023160602,-3.986484e-09,1.0,1.0,0,-0.043425
-0.0045829774,-1.8730163e-05,-0.13506868,6.554523e-12,-0.00231606,-5.3935616e-09,1.0,1.0,3,1.130817
-0.005805397,-1.880169e-05,-0.12223818,-2.9125626e-06,-0.0023159892,1.3489017e-06,1.0,1.0,3,1.073646
-0.006906414,-1.8873216e-05,-0.11010078,-2.8804652e-06,-0.0023159187,1.3315238e-06,1.0,1.0,3,0.908634
-0.007903576,-1.880169e-05,-0.09971718,4.6129485e-06,-0.0023160232,-2.140039e-06,1.0,1.0,3,0.817375
-0.008806991,-1.8873216e-05,-0.0903401,-4.095519e-06,-0.0023159317,1.9004465e-06,1.0,1.0,0,0.002407
-0.009701252,-1.8730163e-05,-0.08942167,5.214571e-06,-0.0023160425,-2.4227934e-06,1.0,1.0,0,0.003033
-0.010586357,-1.8730163e-05,-0.08850622,9.7747744e-08,-0.0023160516,-4.3433676e-08,1.0,1.0,0,0.004038
-0.011462212,-1.8730163e-05,-0.08758999,-3.435343e-08,-0.0023160507,1.0514381e-08,1.0,1.0,3,0.862094
-0.012241078,-1.8730163e-05,-0.07789016,1.218287e-06,-0.0023160724,-5.6463693e-07,1.0,1.0,3,1.147110
-0.012895679,-1.8730163e-05,-0.06546448,-1.2989507e-06,-0.002316048,6.0073654e-07,1.0,1.0,3,1.095870
-0.013432408,-1.8730163e-05,-0.053669043,6.883572e-07,-0.0023160642,-3.217404e-07,1.0,1.0,3,0.826217
-0.013879013,-1.880169e-05,-0.044660363,-3.9122465e-06,-0.0023159697,1.8112789e-06,1.0,1.0,0,0.048046
-0.014316464,-1.8730163e-05,-0.043742374,3.253823e-06,-0.0023160474,-1.5110356e-06,1.0,1.0,0,0.048750
-0.014744759,-1.8730163e-05,-0.04282658,7.050837e-08,-0.002316049,-2.8914528e-08,1.0,1.0,3,0.929385
-0.015073776,-1.8730163e-05,-0.032903697,7.870836e-07,-0.0023160675,-3.641406e-07,1.0,1.0,3,1.125701
-0.01528511,-1.8730163e-05,-0.02113534,7.7532957e-07,-0.0023160863,-3.5879253e-07,1.0,1.0,0,0.071376
-0.015487289,-1.8730163e-05,-0.02021944,-1.5579883e-06,-0.0023160474,7.2780415e-07,1.0,1.0,0,0.072368
-0.015680313,-1.8730163e-05,-0.019302735,-2.6570046e-08,-0.002316046,1.6644751e-08,1.0,1.0,0,0.073259
-0.015864182,-1.8730163e-05,-0.018386278,1.1327243e-08,-0.0023160463,-1.4552496e-08,1.0,1.0,0,0.074171
-0.016038895,-1.8730163e-05,-0.017469859,6.7785773e-09,-0.002316045,4.612552e-10,1.0,1.0,0,0.075085
-0.016204452,-1.8730163e-05,-0.016553449,2.8671392e-09,-0.0023160444,3.6938506e-09,1.0,1.0,0,0.076001
-0.016360855,-1.8730163e-05,-0.015637038,2.3040547e-10,-0.0023160428,2.3493783e-08,1.0,1.0,0,0.076917
-0.016508102,-1.8730163e-05,-0.014720628,-6.0936683e-10,-0.0023160412,2.1782972e-08,1.0,1.0,0,0.077841
-0.016646098,-1.8730163e-05,-0.013804217,-1.192825e-09,-0.0023160407,1.4257793e-09,1.0,1.0,0,0.078757
-0.016774941,-1.8730163e-05,-0.012887806,-1.201521e-09,-0.0023160412,-1.9874333e-08,1.0,1.0,0,0.079672
-0.016894627,-1.8730163e-05,-0.011971395,-9.128835e-10,-0.0023160414,-1.615176e-08,1.0,1.0,0,0.080588
-0.017005157,-1.8730163e-05,-0.011054985,-1.1585995e-09,-0.002316041,-3.699655e-11,1.0,1.0,0,0.081504
-0.017106533,-1.8730163e-05,-0.010138575,-1.1995558e-09,-0.0023160405,-1.4957779e-08,1.0,1.0,0,0.082419
-0.017198753,-1.8730163e-05,-0.009222165,-1.0125387e-09,-0.0023160407,-1.5699047e-08,1.0,1.0,0,0.083335
-0.01728182,-1.8730163e-05,-0.0083057545,-1.50716e-09,-0.0023160402,-8.915924e-10,1.0,1.0,0,0.084250
-0.017355729,-1.8730163e-05,-0.0073893443,-1.5812383e-09,-0.002316039,1.4877429e-08,1.0,1.0,0,0.085166
-0.017420482,-1.8730163e-05,-0.006472934,-6.5264294e-10,-0.002316038,1.568665e-08,1.0,1.0,0,0.086081
-0.017476082,-1.8730163e-05,-0.0055565233,4.4828796e-10,-0.0023160363,2.2125402e-08,1.0,1.0,0,0.086997
-0.017522525,-1.8730163e-05,-0.0046401126,9.813657e-10,-0.0023160346,2.0958694e-08,1.0,1.0,0,0.087922
-0.017559718,-1.8730163e-05,-0.0037237022,1.4065098e-09,-0.0023160337,7.588971e-09,1.0,1.0,0,0.088837
-0.017587757,-1.8730163e-05,-0.0028072917,1.6885873e-09,-0.002316033,-7.163365e-09,1.0,1.0,0,0.089753
-0.01760664,-1.8730163e-05,-0.001890881,1.3742479e-09,-0.0023160335,-1.8521675e-08,1.0,1.0,0,0.090668
-0.017616367,-1.8730163e-05,-0.0009744706,7.5995665e-10,-0.002316034,-2.0198453e-08,1.0,1.0,0,0.091584
-0.017616939,-1.8730163e-05,-5.806036e-05,6.842828e-11,-0.0023160344,-2.0796518e-08,1.0,1.0,0,-0.022679
-0.017614078,-1.8730163e-05,0.0002834126,1.9363064e-07,-0.0023203332,-8.3680774e-05,1.0,1.0,0,0.007630
-0.017612075,-1.8730163e-05,0.00020598524,1.4093311e-07,-0.0023234636,-6.082106e-05,1.0,1.0,0,0.016336
-0.017611694,-1.8730163e-05,4.2370753e-05,2.853442e-08,-0.002324099,-1.2509004e-05,1.0,1.0,0,0.000264
-0.017612075,-1.8730163e-05,-3.9959465e-05,-2.7467044e-08,-0.0023234917,1.1802258e-05,1.0,1.0,0,-0.000011
-0.017612457,-1.8730163e-05,-4.0304563e-05,-2.7295368e-08,-0.0023228799,1.1903625e-05,1.0,1.0,0,0.002701
-0.017612552,-1.8730163e-05,-1.3397328e-05,-9.752646e-09,-0.0023226857,3.955286e-06,1.0,1.0,0,0.000888
-0.017612552,-1.8730163e-05,4.452604e-06,2.5700662e-09,-0.002322754,-1.3158544e-06,1.0,1.0,0,-0.000290
-0.017612457,-1.8730163e-05,7.3503384e-06,4.830457e-09,-0.002322852,-2.1691899e-06,1.0,1.0,0,0.000392
-0.017612457,-1.8730163e-05,3.3770502e-06,2.0187276e-09,-0.0023229015,-9.971752e-07,1.0,1.0,0,0.000318
-0.017612457,-1.8730163e-05,-1.9833526e-07,-1.11581085e-10,-0.0023229024,5.6745325e-08,1.0,1.0,0,-0.000103
-0.017612457,-1.8730163e-05,-1.2444191e-06,-8.087016e-10,-0.002322886,3.7595507e-07,1.0,1.0,0,0.000050
-0.017612457,-1.8730163e-05,-7.5636353e-07,-2.5905866e-10,-0.0023228782,2.2632234e-07,1.0,1.0,0,0.000066
-0.017612457,-1.8730163e-05,-8.971237e-08,-4.1440955e-11,-0.0023228812,1.62883e-08,1.0,1.0,0,-0.000011
-0.017612457,-1.8730163e-05,1.9245196e-07,8.387176e-11,-0.0023228873,-4.7375885e-08,1.0,1.0,0,0.000003
-0.017612457,-1.8730163e-05,1.5745493e-07,4.7973698e-11,-0.002322895,-5.0558064e-08,1.0,1.0,0,0.000011
-0.017612457,-1.8730163e-05,3.9747174e-08,-4.5818016e-11,-0.002322899,-1.720996e-08,1.0,1.0,0,0.000001
-0.017612457,-1.8730163e-05,-2.7264903e-08,6.576671e-11,-0.0023229024,1.8780709e-08,1.0,1.0,0,-0.000001
-0.017612457,-1.8730163e-05,-3.189718e-08,-2.7262528e-12,-0.002322906,1.913601e-08,1.0,1.0,0,0.000001
-0.017612457,-1.8730163e-05,-1.6134631e-08,-8.260852e-11,-0.0023229085,2.3711156e-08,1.0,1.0,0,0.000001
-0.017612457,-1.8730163e-05,-2.6600941e-09,6.562218e-10,-0.0023229124,9.181006e-09,1.0,1.0,0,-0.000001
-0.017612457,-1.8730163e-05,8.194595e-09,9.781449e-10,-0.0023229178,-2.077102e-08,1.0,1.0,0,100
0.0013192177,1.4186158,0.13359913,0.34202346,-0.0015217789,-0.03026222,0.0,0.0,0,-0.592669
0.00263834,1.4262358,0.13341874,0.33866704,-0.0030170765,-0.029908067,0.0,0.0,0,-0.504170
0.003957367,1.4337596,0.13342342,0.33438423,-0.0045115766,-0.029892927,0.0,0.0,0,-0.491411
0.005276489,1.4411861,0.13342789,0.33006012,-0.006005889,-0.029888999,0.0,0.0,0,-0.482659
0.0065956116,1.4485153,0.13343228,0.3257376,-0.0074999626,-0.029884333,0.0,0.0,0,-0.473855
0.007914925,1.4557472,0.13343671,0.32141578,-0.008993809,-0.029879624,0.0,0.0,0,-0.465048
0.0092341425,1.4628823,0.13344112,0.31709406,-0.0104874065,-0.029874912,0.0,0.0,0,-0.456209
0.010553455,1.4699198,0.13344552,0.31277227,-0.011980798,-0.02987056,0.0,0.0,0,-0.447424
0.011872863,1.4768602,0.13344988,0.3084504,-0.013473943,-0.029865917,0.0,0.0,0,-0.438675
0.013192272,1.4837035,0.13345426,0.3041285,-0.014966893,-0.029861633,0.0,0.0,0,-0.429927
0.014511776,1.4904493,0.13345861,0.29980657,-0.016459594,-0.029857084,0.0,0.0,0,-0.421255
0.01583128,1.4970982,0.13346298,0.29548457,-0.0179521,-0.029852778,0.0,0.0,0,-0.412584
0.017150879,1.5036498,0.13346729,0.29116255,-0.019444369,-0.02984823,0.0,0.0,0,-0.403953
0.018470477,1.5101042,0.13347161,0.2868405,-0.020936415,-0.029843727,0.0,0.0,0,-0.395355
0.019790173,1.5164611,0.13347591,0.2825184,-0.022428239,-0.029839193,0.0,0.0,0,-0.386815
0.021109771,1.522721,0.13348018,0.27819628,-0.023919838,-0.029834663,0.0,0.0,0,-0.378312
0.022429561,1.5288839,0.13348445,0.2738741,-0.025411204,-0.029830148,0.0,0.0,0,-0.369841
0.023749352,1.5349494,0.13348868,0.26955187,-0.026902352,-0.029825741,0.0,0.0,0,-0.361424
0.025069142,1.5409178,0.13349292,0.26522958,-0.028393267,-0.029821182,0.0,0.0,0,-0.353032
0.026389027,1.5467887,0.13349713,0.26090726,-0.029883968,-0.029816726,0.0,0.0,0,-0.344720
0.027709007,1.5525626,0.13350134,0.2565849,-0.03137445,-0.029812297,0.0,0.0,0,-0.336445
0.029028893,1.5582391,0.13350554,0.2522625,-0.032864716,-0.029807895,0.0,0.0,0,-0.328239
0.030348968,1.5638186,0.13350971,0.24794005,-0.034354765,-0.029803578,0.0,0.0,0,-0.320092
0.031669043,1.5693009,0.13351387,0.24361756,-0.035844583,-0.029799182,0.0,0.0,0,-0.311994
0.032989122,1.5746858,0.133518,0.23929505,-0.037334193,-0.029794777,0.0,0.0,0,-0.216312
0.03430872,1.5799521,0.13346785,0.23401934,-0.038823742,-0.029791344,0.0,0.0,0,-0.294252
0.03562832,1.5851213,0.13346784,0.2296992,-0.040313315,-0.029791292,0.0,0.0,0,-0.286400
0.036947917,1.5901933,0.13346782,0.225379,-0.041802872,-0.0297913,0.0,0.0,0,-0.278618
0.038267516,1.5951681,0.13346782,0.22105883,-0.04329243,-0.029791292,0.0,0.0,0,-0.270930
0.03958702,1.6000457,0.13346781,0.21673866,-0.044781994,-0.02979131,0.0,0.0,0,-0.263327
0.04090662,1.6048262,0.1334678,0.21241848,-0.046271566,-0.029791301,0.0,0.0,0,-0.255812
0.042226218,1.6095095,0.13346778,0.2080983,-0.047761127,-0.029791307,0.0,0.0,0,-0.248391
0.04354582,1.6140957,0.13346776,0.20377812,-0.049250685,-0.02979132,0.0,0.0,0,-0.241043
0.04486542,1.6185845,0.13346776,0.19945794,-0.050740253,-0.029791322,0.0,0.0,0,-0.233856
0.046185017,1.6229765,0.13346773,0.19513777,-0.052229825,-0.029791307,0.0,0.0,0,-0.226718
0.047504615,1.627271,0.1334677,0.19081756,-0.05371937,-0.02979128,0.0,0.0,0,-0.219750
0.048824213,1.6314685,0.1334677,0.18649739,-0.05520894,-0.02979121,0.0,0.0,0,-0.212854
0.050143816,1.6355687,0.1334677,0.1821772,-0.056698486,-0.02979121,0.0,0.0,0,-0.206121
0.051463414,1.6395717,0.13346767,0.17785701,-0.058188044,-0.029791191,0.0,0.0,0,-0.199539
0.052783012,1.6434777,0.13346764,0.17353682,-0.05967762,-0.029791195,0.0,0.0,0,-0.193058
0.05410261,1.6472863,0.13346764,0.16921665,-0.061167177,-0.029791187,0.0,0.0,0,-0.186774
0.05542221,1.6509979,0.13346761,0.16489647,-0.062656745,-0.029791186,0.0,0.0,0,-0.180619
0.056741904,1.6546123,0.13346758,0.16057628,-0.0641463,-0.029791167,0.0,0.0,0,-0.174651
0.058061503,1.6581295,0.13346758,0.1562561,-0.06563585,-0.029791182,0.0,0.0,0,-0.168862
0.059381105,1.6615496,0.13346756,0.1519359,-0.0671254,-0.029791173,0.0,0.0,0,-0.163265
0.060700703,1.6648724,0.13346754,0.14761573,-0.06861497,-0.029791236,0.0,0.0,0,-0.157847
0.0620203,1.6680981,0.13346753,0.14329554,-0.070104524,-0.029791217,0.0,0.0,0,-0.152655
0.063339904,1.6712266,0.13346751,0.13897535,-0.07159409,-0.02979124,0.0,0.0,0,-0.147670
0.0646595,1.6742579,0.13346748,0.13465516,-0.073083654,-0.02979138,0.0,0.0,0,-0.142945
0.0659792,1.6771922,0.13346747,0.13033496,-0.07457322,-0.029791364,0.0,0.0,0,-0.138434
0.06729879,1.6800292,0.13346745,0.12601478,-0.07606279,-0.029791351,0.0,0.0,0,-0.134190
0.068618394,1.6827691,0.13346742,0.121694595,-0.07755234,-0.02979135,0.0,0.0,0,-0.130202
0.06993799,1.6854116,0.1334674,0.11737441,-0.079041906,-0.02979135,0.0,0.0,0,-0.126521
0.07125769,1.6879572,0.13346738,0.11305423,-0.08053147,-0.029791335,0.0,0.0,0,-0.123102
0.07257728,1.6904055,0.13346735,0.10873404,-0.08202103,-0.02979134,0.0,0.0,0,-0.120004
0.073896885,1.6927567,0.13346733,0.10441387,-0.08351059,-0.029791346,0.0,0.0,0,-0.117205
0.07521649,1.6950107,0.1334673,0.100093685,-0.08500015,-0.02979133,0.0,0.0,0,-0.114766
0.07653618,1.6971675,0.13346729,0.09577349,-0.086489715,-0.02979135,0.0,0.0,0,-0.112635
0.07785578,1.6992272,0.13346727,0.0914533,-0.08797927,-0.029791346,0.0,0.0,0,-0.110874
0.07917547,1.7011898,0.13346726,0.087133124,-0.08946883,-0.02979135,0.0,0.0,0,-0.109456
0.080495074,1.7030549,0.13346724,0.08281293,-0.090958394,-0.029791346,0.0,0.0,0,-0.108422
0.08181467,1.704823,0.13346723,0.07849274,-0.09244796,-0.029791351,0.0,0.0,0,-0.107767
0.08313437,1.7064941,0.1334672,0.074172564,-0.09393752,-0.02979136,0.0,0.0,0,-0.107492
0.08445396,1.7080679,0.13346717,0.06985237,-0.09542709,-0.02979133,0.0,0.0,0,-0.107595
0.08577366,1.7095444,0.13346715,0.06553218,-0.096916646,-0.029791329,0.0,0.0,0,-0.108112
0.08709326,1.710924,0.13346711,0.061211996,-0.09840622,-0.029791322,0.0,0.0,0,-0.108975
0.088412955,1.7122062,0.13346708,0.05689181,-0.09989578,-0.029791314,0.0,0.0,0,-0.110268
0.08973255,1.7133914,0.13346705,0.05257162,-0.101385355,-0.029791286,0.0,0.0,0,-0.111908
0.09105225,1.7144793,0.13346703,0.048251435,-0.10287491,-0.02979127,0.0,0.0,0,-0.113945
0.09237194,1.7154702,0.133467,0.04393125,-0.10436447,-0.029791275,0.0,0.0,0,-0.116295
0.09369154,1.7163637,0.13346699,0.039611064,-0.105854034,-0.029791256,0.0,0.0,0,-0.119021
0.095011234,1.7171602,0.13346696,0.035290882,-0.10734359,-0.02979125,0.0,0.0,0,-0.122041
0.096330926,1.7178595,0.13346693,0.030970696,-0.10883317,-0.029791245,0.0,0.0,0,-0.125372
0.09765053,1.7184618,0.1334669,0.026650513,-0.11032273,-0.029791242,0.0,0.0,0,-0.128929
0.09897022,1.7189665,0.13346687,0.022330325,-0.1118123,-0.029791236,0.0,0.0,0,-0.132755
0.10028992,1.7193744,0.13346682,0.018010143,-0.11330186,-0.029791227,0.0,0.0,0,-0.136751
0.10160961,1.719685,0.1334668,0.01368996,-0.11479143,-0.029791225,0.0,0.0,0,-0.140915
0.10292921,1.7198983,0.13346677,0.009369776,-0.116280995,-0.029791227,0.0,0.0,0,-0.145196
0.1042489,1.7200147,0.13346675,0.0050495914,-0.11777055,-0.029791206,0.0,0.0,0,-0.149536
0.1055686,1.7200336,0.1334667,0.0007294068,-0.11926011,-0.029791182,0.0,0.0,0,-0.153922
0.106888294,1.7199556,0.13346668,-0.0035907777,-0.12074967,-0.029791161,0.0,0.0,0,-0.158295
0.108207986,1.7197803,0.13346663,-0.007910963,-0.12223923,-0.02979117,0.0,0.0,0,-0.162610
0.109527685,1.7195079,0.1334666,-0.012231147,-0.12372879,-0.029791152,0.0,0.0,0,-0.166814
0.11084738,1.7191384,0.13346657,-0.01655133,-0.12521836,-0.029791128,0.0,0.0,0,-0.170889
0.112167075,1.7186716,0.13346654,-0.020871514,-0.12670791,-0.029791126,0.0,0.0,0,-0.174784
0.11348677,1.7181077,0.13346651,-0.025191694,-0.12819746,-0.029791132,0.0,0.0,0,-0.178465
0.11480646,1.7174466,0.13346647,-0.029511878,-0.12968701,-0.02979112,0.0,0.0,0,-0.181884
0.11612616,1.7166883,0.13346644,-0.033832062,-0.13117658,-0.029791102,0.0,0.0,0,-0.185037
0.11744585,1.7158328,0.1334664,-0.038152244,-0.13266614,-0.029791083,0.0,0.0,0,-0.187883
0.11876564,1.7148802,0.13346636,-0.042472433,-0.13415568,-0.029791093,0.0,0.0,0,-0.190390
0.120085336,1.7138305,0.13346633,-0.04679262,-0.13564523,-0.029791083,0.0,0.0,0,-0.192578
0.12140503,1.7126836,0.13346627,-0.05111281,-0.13713478,-0.029791063,0.0,0.0,0,-0.194378
0.12272473,1.7114395,0.13346624,-0.05543299,-0.13862433,-0.029791042,0.0,0.0,0,-0.195820
0.124044515,1.7100983,0.13346621,-0.059753176,-0.14011388,-0.029791033,0.0,0.0,0,-0.196865
0.12536421,1.7086596,0.13346617,-0.06407336,-0.14160341,-0.029791031,0.0,0.0,0,-0.197543
0.1266839,1.707124,0.13346614,-0.06839354,-0.14309296,-0.029791016,0.0,0.0,0,-0.197834
0.12800369,1.7054913,0.1334661,-0.07271373,-0.14458251,-0.029791016,0.0,0.0,0,-0.197737
0.1293234,1.7037613,0.13346605,-0.07703391,-0.14607206,-0.029791038,0.0,0.0,0,-0.197247
0.13064317,1.7019341,0.133466,-0.0813541,-0.14756161,-0.029791031,0.0,0.0,0,-0.196409
0.13196287,1.70001,0.13346598,-0.08567428,-0.14905116,-0.029791024,0.0,0.0,0,-0.195159
0.13328266,1.6979884,0.13346592,-0.08999446,-0.15054072,-0.029791046,0.0,0.0,0,-0.193588
0.13460235,1.6958698,0.13346589,-0.09431465,-0.15203027,-0.029791048,0.0,0.0,0,-0.191639
0.13592215,1.693654,0.13346586,-0.09863483,-0.15351982,-0.029791053,0.0,0.0,0,-0.189365
0.13724184,1.6913409,0.13346581,-0.10295501,-0.15500939,-0.029791037,0.0,0.0,0,-0.186757
0.13856164,1.6889307,0.13346575,-0.1072752,-0.15649894,-0.029791037,0.0,0.0,0,-0.183835
0.13988142,1.6864235,0.13346569,-0.111595385,-0.15798849,-0.029791053,0.0,0.0,0,-0.180596
0.14120121,1.683819,0.13346566,-0.11591557,-0.15947804,-0.029791037,0.0,0.0,0,-0.177072
0.1425209,1.6811173,0.1334656,-0.120235756,-0.16096757,-0.029791042,0.0,0.0,0,-0.173261
0.1438407,1.6783184,0.13346556,-0.12455594,-0.16245712,-0.029791018,0.0,0.0,0,-0.169207
0.14516048,1.6754224,0.13346551,-0.12887612,-0.16394667,-0.029790994,0.0,0.0,0,-0.164870
0.14648028,1.6724293,0.13346548,-0.13319631,-0.16543622,-0.029790986,0.0,0.0,0,-0.160301
0.14780006,1.669339,0.13346544,-0.13751647,-0.16692577,-0.029790994,0.0,0.0,0,-0.155501
0.14911985,1.6661515,0.13346538,-0.14183664,-0.16841532,-0.029791001,0.0,0.0,0,-0.150469
0.15043965,1.6628667,0.13346533,-0.1461568,-0.16990489,-0.029791022,0.0,0.0,0,-0.145242
0.15175943,1.6594849,0.1334653,-0.15047699,-0.17139444,-0.029791022,0.0,0.0,0,-0.139813
0.15307923,1.6560059,0.13346525,-0.15479718,-0.17288399,-0.029790994,0.0,0.0,0,-0.134200
0.15439901,1.6524297,0.1334652,-0.15911739,-0.17437355,-0.029790977,0.0,0.0,0,-0.128375
0.1557189,1.6487561,0.13346517,-0.16343756,-0.1758631,-0.029790983,0.0,0.0,0,-0.122426
0.15703869,1.6449857,0.13346514,-0.16775775,-0.17735265,-0.029790962,0.0,0.0,0,-0.116287
0.15835848,1.6411178,0.13346508,-0.17207794,-0.1788422,-0.029790962,0.0,0.0,0,-0.110012
0.15967827,1.6371529,0.13346504,-0.17639813,-0.18033174,-0.029790962,0.0,0.0,0,-0.103597
0.16099815,1.6330907,0.133465,-0.18071833,-0.1818213,-0.029790938,0.0,0.0,0,-0.097039
0.16231795,1.6289315,0.13346495,-0.18503852,-0.18331085,-0.02979092,0.0,0.0,0,-0.090330
0.16363783,1.6246749,0.13346489,-0.18935871,-0.1848004,-0.029790897,0.0,0.0,0,-0.083554
0.16495761,1.6203215,0.13346483,-0.1936789,-0.18628995,-0.029790884,0.0,0.0,0,-0.076610
0.1662775,1.6158706,0.13346477,-0.19799909,-0.18777952,-0.029790873,0.0,0.0,0,-0.069597
0.1675973,1.6113226,0.13346472,-0.2023193,-0.18926907,-0.029790873,0.0,0.0,0,-0.062456
0.16891718,1.6066775,0.13346468,-0.20663947,-0.19075863,-0.029790899,0.0,0.0,0,-0.055230
0.17023697,1.6019353,0.13346462,-0.21095966,-0.1922482,-0.029790858,0.0,0.0,0,-0.047901
0.17155686,1.5970957,0.13346459,-0.21527983,-0.19373776,-0.029790869,0.0,0.0,0,-0.040512
0.17287675,1.5921592,0.13346453,-0.21960002,-0.19522731,-0.029790875,0.0,0.0,0,-0.033001
0.17419663,1.5871252,0.13346449,-0.22392021,-0.19671686,-0.029790878,0.0,0.0,0,-0.025469
0.17551641,1.5819943,0.13346443,-0.22824042,-0.19820641,-0.029790873,0.0,0.0,0,-0.017808
0.1768363,1.5767661,0.13346437,-0.23256059,-0.19969596,-0.029790852,0.0,0.0,0,-0.010110
0.17815618,1.5714407,0.1334643,-0.23688078,-0.20118552,-0.029790858,0.0,0.0,0,-0.002343
0.17947607,1.5660182,0.13346425,-0.24120097,-0.20267506,-0.029790843,0.0,0.0,0,0.005484
0.18079595,1.5604986,0.13346419,-0.24552114,-0.2041646,-0.029790813,0.0,0.0,0,0.013377
0.18211584,1.5548817,0.13346414,-0.24984135,-0.20565414,-0.02979081,0.0,0.0,0,0.021300
0.18343583,1.5491679,0.13346408,-0.2541615,-0.2071437,-0.029790815,0.0,0.0,0,0.029318
0.18475571,1.5433565,0.13346402,-0.25848168,-0.20863323,-0.029790793,0.0,0.0,0,0.037335
0.1860756,1.5374482,0.13346396,-0.2628019,-0.21012278,-0.029790822,0.0,0.0,0,0.045431
0.18739548,1.5314426,0.13346392,-0.2671221,-0.2116123,-0.029790843,0.0,0.0,0,0.053536
0.18871546,1.5253401,0.13346386,-0.27144226,-0.21310185,-0.02979083,0.0,0.0,0,0.061729
0.19003534,1.5191401,0.1334638,-0.2757624,-0.2145914,-0.029790834,0.0,0.0,0,0.069909
0.19135523,1.5128431,0.13346376,-0.28008258,-0.21608095,-0.029790828,0.0,0.0,0,0.078154
0.1926752,1.5064489,0.1334637,-0.28440276,-0.2175705,-0.029790822,0.0,0.0,0,0.086423
0.19399509,1.4999576,0.13346364,-0.28872293,-0.21906002,-0.029790819,0.0,0.0,0,0.094712
0.19531508,1.493369,0.13346356,-0.2930431,-0.22054958,-0.02979081,0.0,0.0,0,0.103039
0.19663496,1.4866834,0.1334635,-0.29736328,-0.22203912,-0.029790808,0.0,0.0,0,0.111401
0.19795494,1.4799005,0.13346343,-0.30168346,-0.22352865,-0.029790798,0.0,0.0,0,0.119772
0.19927493,1.4730204,0.13346337,-0.30600363,-0.2250182,-0.029790813,0.0,0.0,0,0.128183
0.2005949,1.4660431,0.13346331,-0.3103238,-0.22650774,-0.029790804,0.0,0.0,0,0.136585
0.20191488,1.4589688,0.13346323,-0.31464398,-0.22799727,-0.029790798,0.0,0.0,0,0.145034
0.20323476,1.4517972,0.13346317,-0.31896415,-0.22948681,-0.029790785,0.0,0.0,0,0.153487
0.20455475,1.4445285,0.13346311,-0.3232843,-0.23097634,-0.029790783,0.0,0.0,0,0.161969
0.20587473,1.4371625,0.13346305,-0.32760444,-0.23246588,-0.029790778,0.0,0.0,0,0.170431
0.20719472,1.4296995,0.13346298,-0.33192462,-0.23395543,-0.029790763,0.0,0.0,0,0.178954
0.20851478,1.4221392,0.1334629,-0.33624476,-0.23544498,-0.029790748,0.0,0.0,0,0.187430
0.20983477,1.4144819,0.13346283,-0.34056494,-0.23693451,-0.029790705,0.0,0.0,0,0.195972
0.21115474,1.4067272,0.13346277,-0.34488508,-0.23842406,-0.029790703,0.0,0.0,0,0.204492
0.21247473,1.3988755,0.13346271,-0.3492053,-0.2399136,-0.029790714,0.0,0.0,0,0.213022
0.21379471,1.3909265,0.13346265,-0.35352543,-0.24140315,-0.02979073,0.0,0.0,0,0.221550
0.21511479,1.3828804,0.1334626,-0.3578456,-0.2428927,-0.029790733,0.0,0.0,0,0.230106
0.21643476,1.3747371,0.13346252,-0.36216575,-0.24438225,-0.029790714,0.0,0.0,0,0.238645
0.21775484,1.3664967,0.13346246,-0.3664859,-0.24587178,-0.02979072,0.0,0.0,1,0.983102
0.2189888,1.3581947,0.12261722,-0.368852,-0.24507491,0.015936708,0.0,0.0,1,1.110093
0.22014351,1.3498241,0.11264044,-0.3715601,-0.24219202,0.057657827,0.0,0.0,1,1.310682
0.22121601,1.3413837,0.10229005,-0.37431914,-0.2371554,0.10073235,0.0,0.0,1,1.365478
0.22223139,1.3328757,0.09505284,-0.37710327,-0.23057343,0.13163899,0.0,0.0,0,1.070676
0.22324686,1.3242711,0.09505157,-0.38142678,-0.2239915,0.1316386,0.0,0.0,0,1.079470
0.22426243,1.3155699,0.095050335,-0.3857503,-0.2174096,0.13163821,0.0,0.0,0,1.088257
0.22527818,1.3067721,0.09504914,-0.3900738,-0.2108277,0.13163784,0.0,0.0,1,1.671081
0.22620507,1.2979003,0.08390765,-0.39307168,-0.20195945,0.17736435,0.0,0.0,1,1.759202
0.22706528,1.2889547,0.075487874,-0.3961828,-0.1913476,0.21223667,0.0,0.0,1,1.874482
0.22786227,1.2799294,0.06750341,-0.39959875,-0.17910098,0.2449325,0.0,0.0,1,2.043481
0.22859602,1.2708284,0.05951313,-0.40287453,-0.16520943,0.2778309,0.0,0.0,0,1.852037
0.22933006,1.2616327,0.059508957,-0.4072104,-0.15131809,0.2778272,0.0,0.0,0,1.860798
0.23006439,1.2523422,0.059505116,-0.41154635,-0.13742693,0.2778235,0.0,0.0,0,1.869524
0.23079892,1.2429572,0.05950161,-0.4158823,-0.12353592,0.2778198,0.0,0.0,0,1.878226
0.23153372,1.2334777,0.059498448,-0.4202183,-0.109645106,0.27781612,0.0,0.0,0,1.886933
0.23226872,1.2239033,0.05949561,-0.42455432,-0.095754504,0.27781242,0.0,0.0,1,2.255744
0.23291531,1.2142379,0.048399135,-0.42860648,-0.07964233,0.32224345,0.0,0.0,1,2.482304
0.23346797,1.2044841,0.036604054,-0.43261045,-0.061166264,0.36952147,0.0,0.0,1,2.649412
0.23394251,1.1946454,0.026758498,-0.4365614,-0.040714025,0.4090449,0.0,0.0,0,2.575660
0.23441724,1.1847152,0.026755786,-0.44091636,-0.020262375,0.40903315,0.0,0.0,0,2.546358
0.23489189,1.1746931,0.026754135,-0.44527134,0.00018868476,0.40902132,0.0,0.0,0,-1.497587
0.23536654,1.1645794,0.026753563,-0.44962633,0.020639168,0.40900952,0.0,0.0,0,-1.489093
0.23584118,1.1543741,0.02675407,-0.4539813,0.041089065,0.40899777,0.0,0.0,0,-1.480612
0.23631564,1.1440773,0.026755642,-0.45833626,0.06153834,0.40898603,0.0,0.0,0,-1.472148
0.2367899,1.1336888,0.026758293,-0.4626912,0.081987046,0.40897426,0.0,0.0,0,-1.463706
0.23726368,1.1232085,0.026762014,-0.4670461,0.10243517,0.4089625,0.0,0.0,0,-1.455291
0.23773727,1.1126367,0.026766801,-0.47140095,0.12288271,0.40895072,0.0,0.0,0,-1.446878
0.23821029,1.1019729,0.026772663,-0.47575572,0.14332964,0.40893894,0.0,0.0,0,-1.438517
0.23868275,1.0912175,0.026779588,-0.48011044,0.163776,0.4089271,0.0,0.0,0,-1.430182
0.23915462,1.0803703,0.026787583,-0.48446503,0.18422176,0.40891534,0.0,0.0,2,0.878496
0.23942213,1.0699973,0.007020265,-0.46359605,0.20405985,0.39676228,0.0,0.0,2,3.679954
0.23969316,1.060792,0.0066679097,-0.4120724,0.22470482,0.41289943,0.0,0.0,2,4.502538
0.23971167,1.0529732,-0.018380275,-0.35071567,0.24522981,0.41049972,0.0,0.0,0,-1.716426
0.23972921,1.0450625,-0.01836799,-0.35506997,0.2657542,0.41048783,0.0,0.0,0,-1.707689
0.23974581,1.0370601,-0.018354658,-0.35942408,0.28627798,0.4104759,0.0,0.0,0,-1.698974
0.23976135,1.0289661,-0.018340277,-0.363778,0.30680117,0.410464,0.0,0.0,2,2.792968
0.23963022,1.0219209,-0.033282824,-0.31751716,0.32774478,0.41887245,0.0,0.0,2,2.402176
0.23927745,1.0159194,-0.055455506,-0.2714458,0.34885016,0.42210746,0.0,0.0,2,3.586531
0.23872681,1.0113686,-0.07580453,-0.20745005,0.37072712,0.43753934,0.0,0.0,0,-2.132237
0.23817472,1.0067266,-0.07578341,-0.21180758,0.39260334,0.43752486,0.0,0.0,0,-2.124165
0.23762111,1.0019931,-0.075761065,-0.2161648,0.41447887,0.43751043,0.0,0.0,0,-2.116049
0.2370656,0.99716806,-0.07573749,-0.2205217,0.43635365,0.43749595,0.0,0.0,2,0.545174
0.23633203,0.99317694,-0.09378013,-0.18389326,0.45869422,0.44681162,0.0,0.0,2,0.133863
0.23546724,0.9900202,-0.107327566,-0.14734474,0.48176205,0.46135712,0.0,0.0,0,-2.323096
0.23460026,0.9867724,-0.107297316,-0.15170452,0.50482905,0.4613402,0.0,0.0,0,-2.317485
0.23373099,0.9834337,-0.107265696,-0.15606381,0.5278952,0.46132326,0.0,0.0,0,-2.311649
0.23285933,0.98000395,-0.107232735,-0.16042261,0.5509605,0.4613064,0.0,0.0,0,-2.305642
0.23198518,0.97648305,-0.10719844,-0.16478088,0.574025,0.46128947,0.0,0.0,0,-2.299434
0.23110838,0.9728708,-0.10716282,-0.16913863,0.5970885,0.46127254,0.0,0.0,0,-2.293060
0.23022899,0.9691671,-0.1071259,-0.17349578,0.6201513,0.4612556,0.0,0.0,0,-2.286564
0.22934695,0.9653721,-0.10708772,-0.17785239,0.6432132,0.46123862,0.0,0.0,0,-2.279894
0.22846194,0.96148556,-0.10704827,-0.18220839,0.6662743,0.4612217,0.0,0.0,0,-2.273078
0.22757396,0.9575073,-0.1070076,-0.18656379,0.6893345,0.46120477,0.0,0.0,0,-2.266145
0.22668305,0.9534373,-0.10696572,-0.19091853,0.7123939,0.4611879,0.0,0.0,0,-2.259070
0.22578898,0.94927543,-0.10692264,-0.19527265,0.7354524,0.461171,0.0,0.0,3,-1.308259
0.22495317,0.9450973,-0.09905912,-0.19519836,0.7562273,0.41549763,0.0,0.0,3,-0.928569
0.22418013,0.94092363,-0.09052132,-0.19394994,0.7743131,0.361717,0.0,0.0,3,-0.763048
0.22346076,0.936752,-0.08315775,-0.1928297,0.7899062,0.31186214,0.0,0.0,0,-1.525394
0.22273979,0.9324852,-0.083136216,-0.19716416,0.8054991,0.3118569,0.0,0.0,0,-1.517440
0.22201729,0.9281236,-0.08311434,-0.20149845,0.82109165,0.31185168,0.0,0.0,0,-1.509387
0.22129326,0.92366683,-0.08309214,-0.20583245,0.836684,0.31184644,0.0,0.0,3,-0.495290
0.2206231,0.91921365,-0.075800695,-0.20448889,0.8497091,0.2605017,0.0,0.0,3,-0.380362
0.22000913,0.9147436,-0.068544924,-0.20413783,0.8604499,0.21481697,0.0,0.0,3,-0.072464
0.21944647,0.9102749,-0.061680596,-0.20283434,0.8686839,0.1646795,0.0,0.0,0,-0.780255
0.21888332,0.90570974,-0.06167411,-0.20715803,0.87691784,0.16467874,0.0,0.0,0,-0.771585
0.2183198,0.901048,-0.061667584,-0.21148166,0.8851517,0.164678,0.0,0.0,0,-0.762882
0.2177557,0.8962895,-0.061661012,-0.21580529,0.8933856,0.16467723,0.0,0.0,3,0.307891
0.21724434,0.8915493,-0.05455445,-0.2135298,0.89878637,0.108015195,0.0,0.0,3,0.332077
0.21678105,0.88679653,-0.048325323,-0.2129138,0.90195215,0.06331517,0.0,0.0,3,0.346844
0.21635962,0.8820078,-0.04303578,-0.21358988,0.9033821,0.0285997,0.0,0.0,0,-0.082139
0.21593818,0.877122,-0.043035578,-0.21790998,0.9048121,0.028599674,0.0,0.0,0,-0.073061
0.21551676,0.8721388,-0.043035377,-0.22223006,0.9062421,0.028599659,0.0,0.0,0,-0.064016
0.21509533,0.86705863,-0.043035172,-0.22655018,0.90767205,0.02859964,0.0,0.0,0,-0.054932
0.2146738,0.8618812,-0.04303497,-0.2308703,0.909102,0.02859963,0.0,0.0,3,0.824368
0.21429881,0.8567051,-0.036863416,-0.2294992,0.9080771,-0.020498527,0.0,0.0,3,0.987022
0.21397571,0.8515181,-0.030208206,-0.22874847,0.9047233,-0.06707668,0.0,0.0,0,0.427293
0.2136527,0.84623396,-0.030207092,-0.23306903,0.90136945,-0.06707664,0.0,0.0,0,0.436455
0.21332951,0.8408528,-0.030205984,-0.23738962,0.8980156,-0.06707658,0.0,0.0,0,0.445624
0.2130063,0.83537453,-0.030204877,-0.24171022,0.8946618,-0.06707651,0.0,0.0,0,0.454780
0.21268292,0.82979923,-0.030203775,-0.24603081,0.89130795,-0.06707644,0.0,0.0,3,1.203217
0.21240444,0.8242127,-0.024303336,-0.24538118,0.8857519,-0.11112134,0.0,0.0,3,1.402195
0.21217947,0.8186099,-0.017465737,-0.24493448,0.8779361,-0.15631506,0.0,0.0,3,1.818407
0.21200809,0.81302136,-0.010265727,-0.24289277,0.86735076,-0.21170871,0.0,0.0,0,1.180669
0.21183586,0.80733675,-0.0102549335,-0.24721882,0.8567654,-0.21170709,0.0,0.0,0,1.189780
0.21166286,0.8015558,-0.010244235,-0.25154492,0.84618014,-0.21170548,0.0,0.0,0,1.198862
0.21148911,0.7956787,-0.010233638,-0.25587115,0.8355949,-0.21170382,0.0,0.0,3,1.819756
0.21136494,0.7897784,-0.003779165,-0.25592908,0.82294905,-0.25291508,0.0,0.0,3,2.183357
0.21129942,0.7838781,0.0040255436,-0.2547408,0.8077152,-0.30467784,0.0,0.0,3,2.429718
0.21129961,0.77797866,0.012696354,-0.2535032,0.7897643,-0.35901737,0.0,0.0,3,2.656047
0.21136674,0.7720791,0.021577824,-0.25237748,0.7691006,-0.41327396,0.0,0.0,0,2.209112
0.21143122,0.7660865,0.021615572,-0.256723,0.7484375,-0.41326183,0.0,0.0,0,2.217659
0.21149302,0.7600009,0.021652522,-0.26106897,0.7277751,-0.41324964,0.0,0.0,0,2.226165
0.21155234,0.7538223,0.021688657,-0.26541546,0.7071132,-0.41323742,0.0,0.0,0,2.234653
0.21160927,0.74755085,0.021723961,-0.26976243,0.686452,-0.41322526,0.0,0.0,0,2.243096
0.21166372,0.7411866,0.021758424,-0.27410987,0.66579133,-0.4132131,0.0,0.0,3,2.774968
0.2117774,0.73480296,0.02973125,-0.27430075,0.6429112,-0.45760384,0.0,0.0,0,2.473427
0.21188822,0.72832763,0.029771337,-0.2786556,0.62003183,-0.4575873,0.0,0.0,0,2.481591
0.21199636,0.72176087,0.029810214,-0.28301105,0.5971533,-0.4575708,0.0,0.0,0,2.489745
0.21210194,0.71510255,0.029847864,-0.28736708,0.5742756,-0.45755434,0.0,0.0,0,2.497825
0.21220502,0.7083531,0.02988427,-0.2917237,0.55139875,-0.4575378,0.0,0.0,0,2.505916
0.21230555,0.7015123,0.029919406,-0.2960808,0.5285227,-0.45752135,0.0,0.0,0,2.513940
0.21240386,0.69458014,0.02995326,-0.30043846,0.5056474,-0.45750484,0.0,0.0,0,2.521920
0.2124999,0.6875569,0.029985819,-0.30479664,0.482773,-0.45748836,0.0,0.0,0,2.529846
0.21259384,0.6804427,0.030017048,-0.3091553,0.45989943,-0.45747185,0.0,0.0,0,2.537735
0.21268567,0.6732375,0.030046944,-0.31351438,0.43702665,-0.4574554,0.0,0.0,0,2.545561
0.21277551,0.6659414,0.030075485,-0.31787395,0.41415474,-0.4574389,0.0,0.0,0,2.553358
0.21286345,0.65855443,0.030102666,-0.32223397,0.39128363,-0.45742244,0.0,0.0,0,2.561066
0.21294966,0.65107685,0.030128464,-0.32659432,0.36841336,-0.45740595,0.0,0.0,0,2.568743
0.21303415,0.64350843,0.030152872,-0.3309551,0.34554392,-0.45738944,0.0,0.0,0,2.576332
0.21311721,0.6358495,0.03017587,-0.33531624,0.32267532,-0.45737296,0.0,0.0,2,7.232594
0.21303816,0.62922424,0.013757582,-0.28979567,0.3002025,-0.44945678,0.0,0.0,0,2.449958
0.21295786,0.622508,0.013777065,-0.29415604,0.27773044,-0.44944113,0.0,0.0,0,2.457783
0.21287632,0.61570114,0.013795177,-0.29851666,0.25525916,-0.44942552,0.0,0.0,0,2.465589
0.21279363,0.6088034,0.013811916,-0.30287755,0.23278867,-0.4494099,0.0,0.0,0,2.473298
0.2127099,0.6018151,0.013827274,-0.3072387,0.21031895,-0.44939432,0.0,0.0,0,2.480963
0.21262531,0.5947362,0.013841242,-0.3116001,0.18785001,-0.44937873,0.0,0.0,0,2.488579
0.21253987,0.5875667,0.013853809,-0.31596166,0.16538186,-0.44936308,0.0,0.0,2,7.669998
0.21244964,0.5815809,0.012835602,-0.26374814,0.14354326,-0.43677178,0.0,0.0,2,6.642057
0.2124074,0.576592,0.016993579,-0.21981773,0.12240754,-0.42271447,0.0,0.0,2,7.546981
0.2124137,0.57285446,0.02117314,-0.16455498,0.10200341,-0.4080828,0.0,0.0,0,1.966958
0.2124197,0.5690252,0.021179007,-0.16890973,0.08159988,-0.40807113,0.0,0.0,0,1.975030
0.21242532,0.5651043,0.02118381,-0.17326455,0.061196912,-0.40805945,0.0,0.0,0,1.983081
0.21243076,0.56109184,0.021187542,-0.17761941,0.040794536,-0.40804768,0.0,0.0,2,7.230207
0.21239452,0.5582578,0.01706467,-0.12551826,0.020360595,-0.4086792,0.0,0.0,2,3.780631
0.21243533,0.5558846,0.02438672,-0.10532503,0.0003187793,-0.4008364,0.0,0.0,0,-2.136226
0.21247616,0.55341953,0.024387239,-0.10967876,-0.019722473,-0.40082532,0.0,0.0,0,-2.192267
0.21251707,0.5508625,0.024386743,-0.1140325,-0.03976318,-0.40081415,0.0,0.0,0,-2.184500
0.21255818,0.54821366,0.02438523,-0.118386224,-0.059803315,-0.40080303,0.0,0.0,0,-2.176677
0.21259947,0.54547286,0.024382709,-0.12273991,-0.07984292,-0.40079194,0.0,0.0,2,-0.076975
0.2126069,0.5431937,0.021253053,-0.102515735,-0.10017567,-0.40665492,0.0,0.0,2,1.823687
0.21275893,0.5420142,0.035370618,-0.053895615,-0.120211475,-0.40071613,0.0,0.0,0,-2.258636
0.21291122,0.5407427,0.03536505,-0.058249135,-0.1402467,-0.40070495,0.0,0.0,0,-2.257616
0.213064,0.53937954,0.035358474,-0.06260257,-0.1602814,-0.4006939,0.0,0.0,0,-2.255467
0.21321745,0.53792423,0.035350896,-0.06695592,-0.18031554,-0.40068278,0.0,0.0,0,-2.252423
0.21337147,0.5363771,0.035342325,-0.07130916,-0.2003491,-0.40067166,0.0,0.0,0,-2.248640
0.21352625,0.534738,0.035332747,-0.07566227,-0.22038212,-0.4006606,0.0,0.0,0,-2.244223
0.21368179,0.53300685,0.035322186,-0.08001525,-0.24041459,-0.40064955,0.0,0.0,1,-1.614385
0.21376018,0.5312043,0.025524354,-0.083105765,-0.25842965,-0.3603012,0.0,0.0,1,-1.412763
0.21375284,0.5293428,0.014649326,-0.0855236,-0.27415448,-0.31449693,0.0,0.0,0,-1.818850
0.21374616,0.5273871,0.014641116,-0.08986365,-0.28987902,-0.3144916,0.0,0.0,0,-1.810767
0.21374007,0.52533746,0.014632436,-0.094203606,-0.30560333,-0.3144862,0.0,0.0,0,-1.802631
0.21373463,0.52319384,0.014623289,-0.09854348,-0.32132736,-0.31448084,0.0,0.0,0,-1.794443
0.21372995,0.5209561,0.014613673,-0.10288324,-0.33705112,-0.3144755,0.0,0.0,1,-1.355116
0.21366605,0.5186637,0.0069685467,-0.10506951,-0.3510624,-0.28022522,0.0,0.0,1,-1.090444
0.21351442,0.5163284,-0.004218019,-0.1065056,-0.3625946,-0.23064439,0.0,0.0,0,-1.355605
0.21336317,0.51389766,-0.0042238804,-0.110836074,-0.3741267,-0.23064224,0.0,0.0,0,-1.346916
0.2132123,0.5113713,-0.004229921,-0.11516651,-0.3856587,-0.23064014,0.0,0.0,0,-1.338261
0.213062,0.5087495,-0.004236141,-0.1194969,-0.3971906,-0.23063806,0.0,0.0,0,-1.329604
0.21291208,0.506032,-0.00424254,-0.12382723,-0.4087224,-0.23063593,0.0,0.0,0,-1.320966
0.21276264,0.5032189,-0.0042491183,-0.12815751,-0.42025408,-0.23063378,0.0,0.0,1,-1.006582
0.21254472,0.50034416,-0.012882927,-0.13045047,-0.42989466,-0.19281225,0.0,0.0,1,-0.745557
0.21224327,0.49742618,-0.02350003,-0.13173418,-0.4371243,-0.14459324,0.0,0.0,0,-0.859884
0.211942,0.49441168,-0.0235028,-0.13605817,-0.44435394,-0.14459272,0.0,0.0,0,-0.851570
0.21164092,0.49130067,-0.023505615,-0.14038214,-0.45158353,-0.1445922,0.0,0.0,0,-0.843228
0.21134004,0.48809296,-0.02350847,-0.1447061,-0.45881313,-0.14459164,0.0,0.0,0,-0.834895
0.21103945,0.4847887,-0.023511374,-0.14903004,-0.4660427,-0.14459112,0.0,0.0,1,-0.536436
0.21068773,0.48143873,-0.030131187,-0.15058784,-0.47161853,-0.11151607,0.0,0.0,1,-0.367986
0.21027699,0.47804654,-0.0377505,-0.15190302,-0.47531894,-0.0740084,0.0,0.0,0,-0.453909
0.20986605,0.4745573,-0.037751287,-0.15622404,-0.47901934,-0.074008316,0.0,0.0,0,-0.445903
0.2094553,0.4709711,-0.03775208,-0.16054508,-0.48271975,-0.074008256,0.0,0.0,0,-0.437862
0.20904455,0.4672878,-0.03775288,-0.1648661,-0.48642015,-0.07400819,0.0,0.0,0,-0.429815
0.2086339,0.46350747,-0.037753686,-0.16918713,-0.49012056,-0.07400815,0.0,0.0,1,-0.130783
0.20813541,0.4596896,-0.048850488,-0.17003949,-0.49124402,-0.022469336,0.0,0.0,1,0.101519
0.2075512,0.45583937,-0.059719592,-0.17065756,-0.48978868,0.029106554,0.0,0.0,1,0.211287
0.20691109,0.4519284,-0.06676342,-0.17284808,-0.48671043,0.061564885,0.0,0.0,0,0.295072
0.20627098,0.44792032,-0.06676398,-0.17716879,-0.48363218,0.06156485,0.0,0.0,0,0.302419
0.20563097,0.44381505,-0.06676454,-0.18148948,-0.48055393,0.061564803,0.0,0.0,0,0.309787
0.20499095,0.43961278,-0.0667651,-0.18581018,-0.4774757,0.061564725,0.0,0.0,0,0.317201
0.20435104,0.43531337,-0.06676565,-0.19013089,-0.47439748,0.06156469,0.0,0.0,1,0.512355
0.20365123,0.43097422,-0.074481025,-0.19131985,-0.4694041,0.099867284,0.0,0.0,1,0.685564
0.20287362,0.42660213,-0.084445395,-0.19207342,-0.46202147,0.14765275,0.0,0.0,1,0.857074
0.20201282,0.42219302,-0.095017,-0.19302279,-0.45217612,0.19690692,0.0,0.0,0,1.038601
0.20115241,0.41768783,-0.0950224,-0.1973501,-0.44233084,0.1969056,0.0,0.0,0,1.045313
0.2002925,0.41308665,-0.0950277,-0.20167743,-0.4324856,0.19690429,0.0,0.0,0,1.052077
0.19943276,0.40838945,-0.09503288,-0.20600483,-0.42264047,0.19690298,0.0,0.0,0,1.058864
0.1985735,0.40359616,-0.09503795,-0.21033224,-0.4127954,0.19690165,0.0,0.0,0,1.065675
0.19771452,0.39870688,-0.095042914,-0.2146597,-0.40295038,0.19690034,0.0,0.0,1,1.139141
0.19679384,0.3937707,-0.1030099,-0.21632959,-0.39124465,0.23411432,0.0,0.0,1,1.262647
0.1958066,0.3887797,-0.11150426,-0.21836601,-0.37763727,0.27214798,0.0,0.0,1,1.414481
0.19474554,0.38373414,-0.12089946,-0.22041696,-0.3619648,0.31344956,0.0,0.0,1,1.643933
0.19359732,0.3786546,-0.13213663,-0.22149605,-0.34375367,0.3642217,0.0,0.0,0,1.958714
0.19245005,0.37348202,-0.13215111,-0.22584221,-0.325543,0.36421338,0.0,0.0,0,1.964647
0.19130373,0.36821645,-0.13216487,-0.23018853,-0.30733272,0.36420503,0.0,0.0,0,1.970593
0.19015828,0.36285797,-0.1321779,-0.23453501,-0.28912288,0.36419672,0.0,0.0,0,1.976565
0.18901367,0.3574063,-0.13219023,-0.23888166,-0.27091345,0.36418837,0.0,0.0,0,1.982511
0.18786983,0.35186177,-0.13220182,-0.24322845,-0.25270444,0.36418003,0.0,0.0,0,1.988445
0.18672676,0.34622434,-0.13221267,-0.24757537,-0.23449588,0.36417168,0.0,0.0,0,1.994378
0.18558426,0.34049392,-0.1322228,-0.25192243,-0.2162877,0.36416337,0.0,0.0,0,2.000249
0.18444243,0.33467075,-0.13223217,-0.25626957,-0.19807994,0.36415505,0.0,0.0,0,2.006099
0.18330117,0.32875457,-0.13224082,-0.26061687,-0.17987262,0.36414674,0.0,0.0,0,2.011876
0.18216047,0.32274565,-0.13224871,-0.26496425,-0.1616657,0.36413842,0.0,0.0,0,2.017596
0.18102026,0.31664386,-0.13225584,-0.26931173,-0.14345919,0.3641301,0.0,0.0,0,2.023243
0.17988034,0.31044924,-0.13226223,-0.27365926,-0.1252531,0.3641218,0.0,0.0,0,2.028779
0.17874089,0.30416188,-0.13226786,-0.27800688,-0.10704742,0.36411348,0.0,0.0,0,2.034228
0.17760172,0.2977816,-0.13227275,-0.2823545,-0.088842176,0.36410517,0.0,0.0,1,1.881138
0.17638198,0.2913319,-0.1424522,-0.2855603,-0.068569265,0.40545815,0.0,0.0,1,2.064516
0.1750927,0.2848024,-0.15121505,-0.28932425,-0.04653172,0.44075125,0.0,0.0,0,2.447041
0.17380361,0.27818227,-0.15121862,-0.29368502,-0.024494903,0.44073647,0.0,0.0,0,2.451706
0.17251463,0.27147132,-0.15122084,-0.2980458,-0.0024588322,0.44072166,0.0,0.0,0,-1.459107
0.17122555,0.2646696,-0.15122172,-0.30240664,0.019576518,0.4407069,0.0,0.0,0,-1.946460
0.16993646,0.25777718,-0.15122126,-0.30676746,0.04161112,0.4406922,0.0,0.0,2,2.815858
0.16866302,0.25210348,-0.1498783,-0.25294167,0.06388637,0.44550496,0.0,0.0,2,1.792036
0.16716614,0.24785279,-0.17145257,-0.1899863,0.08542943,0.4308613,0.0,0.0,0,-2.035766
0.16566887,0.24351111,-0.17144823,-0.19434524,0.10697181,0.43084747,0.0,0.0,0,-2.031781
0.16417113,0.23907831,-0.17144266,-0.19870411,0.12851349,0.43083367,0.0,0.0,0,-2.027779
0.1626729,0.23455454,-0.17143582,-0.2030629,0.15005447,0.4308199,0.0,0.0,0,-2.023748
0.1611741,0.22993964,-0.17142774,-0.20742157,0.17159475,0.4308061,0.0,0.0,2,-0.149201
0.1595355,0.2262148,-0.18520159,-0.16815542,0.19301786,0.42846194,0.0,0.0,2,-0.023696
0.15786429,0.2233728,-0.1887963,-0.12928464,0.21487215,0.43708596,0.0,0.0,0,-2.097471
0.1561923,0.22043982,-0.18878415,-0.133644,0.23672572,0.43707156,0.0,0.0,0,-2.095333
0.15451917,0.2174158,-0.18877071,-0.13800317,0.25857857,0.4370572,0.0,0.0,0,-2.093053
0.1528451,0.2143007,-0.18875599,-0.14236213,0.2804307,0.4370428,0.0,0.0,0,-2.090607
0.15116969,0.21109451,-0.18874,-0.14672089,0.30228212,0.43702835,0.0,0.0,0,-2.088039
0.14949302,0.20779724,-0.18872274,-0.15107939,0.32413286,0.437014,0.0,0.0,0,-2.085319
0.14781503,0.20440872,-0.18870422,-0.15543763,0.34598282,0.43699965,0.0,0.0,0,-2.082501
0.14613572,0.200929,-0.18868446,-0.15979561,0.3678321,0.4369853,0.0,0.0,0,-2.079547
0.14445476,0.19735795,-0.18866347,-0.16415328,0.38968065,0.43697095,0.0,0.0,0,-2.076502
0.14277229,0.19369556,-0.18864124,-0.16851062,0.41152844,0.43695655,0.0,0.0,0,-2.073377
0.1410881,0.18994182,-0.18861778,-0.17286761,0.43337554,0.4369422,0.0,0.0,0,-2.070173
0.1394022,0.18609661,-0.18859312,-0.17722431,0.4552219,0.43692786,0.0,0.0,0,-2.066904
0.13771419,0.18215998,-0.18856725,-0.18158059,0.4770676,0.4369134,0.0,0.0,0,-2.063594
0.13602439,0.17813173,-0.18854022,-0.1859365,0.49891254,0.436899,0.0,0.0,0,-2.060249
0.13433246,0.17401186,-0.18851201,-0.19029199,0.5207568,0.43688458,0.0,0.0,0,-2.056896
0.13263854,0.16980022,-0.18848267,-0.19464709,0.5426003,0.4368702,0.0,0.0,0,-2.053531
0.13094226,0.16549674,-0.18845215,-0.19900174,0.56444305,0.43685585,0.0,0.0,2,-2.913308
0.12871952,0.16237237,-0.24089305,-0.14688969,0.5863328,0.43779516,0.0,0.0,2,-5.125396
0.1259636,0.16016795,-0.29367098,-0.10614897,0.60790384,0.43142137,0.0,0.0,2,-6.527993
0.12262936,0.15901738,-0.3510938,-0.059502974,0.6293062,0.4280478,0.0,0.0,2,-8.566783
0.11859713,0.15892489,-0.42020336,-0.012525595,0.6501952,0.41777962,0.0,0.0,0,-1.847118
0.11456261,0.15873972,-0.42017055,-0.016875098,0.6710835,0.41776714,0.0,0.0,0,-1.848831
0.1105258,0.15846184,-0.42013678,-0.02122413,0.69197124,0.41775456,0.0,0.0,0,-1.850466
0.10648642,0.15809126,-0.42010206,-0.025572686,0.7128583,0.417742,0.0,0.0,0,-1.852056
0.10244455,0.15762778,-0.4200665,-0.029920753,0.7337448,0.41772947,0.0,0.0,0,-1.853596
0.098400116,0.15707146,-0.42003003,-0.03426832,0.7546306,0.4177169,0.0,0.0,0,-1.855105
0.0943531,0.15642215,-0.4199927,-0.03861537,0.77551585,0.41770434,0.0,0.0,0,-1.856573
0.090303324,0.15567972,-0.41995454,-0.042961895,0.7964004,0.41769177,0.0,0.0,0,-1.858036
0.086250685,0.15484422,-0.41991553,-0.047307886,0.8172844,0.41767922,0.0,0.0,0,-1.859499
0.08219528,0.15391546,-0.4198758,-0.051653326,0.8381677,0.41766667,0.0,0.0,0,-1.860964
0.07813692,0.15289344,-0.41983524,-0.05599821,0.85905045,0.4176541,0.0,0.0,0,-1.862457
0.0740757,0.15177792,-0.41979393,-0.060342517,0.8799325,0.4176415,0.0,0.0,0,-1.863983
0.07001142,0.15056886,-0.41975182,-0.06468625,0.900814,0.417629,0.0,0.0,0,-1.865588
0.0659441,0.14926623,-0.41970906,-0.06902938,0.9216948,0.41761646,0.0,0.0,0,-1.867263
0.061873816,0.1478699,-0.41966552,-0.07337192,0.942575,0.41760388,0.0,0.0,3,-1.196416
0.057833195,0.14645985,-0.41519699,-0.07308216,0.9615188,0.37887734,0.0,0.0,3,-0.845626
0.05383425,0.14504328,-0.40947223,-0.07225117,0.9782104,0.33383286,0.0,0.0,3,-0.591185
0.049877167,0.1436308,-0.40368694,-0.07078362,0.99244136,0.28462106,0.0,0.0,3,-0.478562
0.045956515,0.14220837,-0.3987142,-0.07008411,1.0045406,0.24198452,0.0,0.0,3,-0.346775
0.042072106,0.14075783,-0.39399704,-0.0703584,1.0148441,0.2060698,0.0,0.0,0,-0.851740
0.038187027,0.1392108,-0.3939857,-0.074683174,1.0251473,0.2060683,0.0,0.0,0,-0.854570
0.03430109,0.1375673,-0.39397424,-0.07900786,1.0354506,0.20606677,0.0,0.0,0,-0.857636
0.030414391,0.13582729,-0.39396277,-0.08333246,1.0457538,0.20606527,0.0,0.0,0,-0.860958
0.026526738,0.13399087,-0.3939512,-0.08765699,1.056057,0.20606375,0.0,0.0,0,-0.864590
0.02263832,0.13205789,-0.39393955,-0.09198143,1.0663601,0.20606223,0.0,0.0,0,-0.868554
0.018749142,0.13002835,-0.39392787,-0.0963058,1.076663,0.20606068,0.0,0.0,0,-0.872950
0.0148591045,0.1279024,-0.39391607,-0.10063008,1.0869658,0.20605914,0.0,0.0,0,-0.877817
0.010968208,0.1256798,-0.39390427,-0.10495429,1.0972687,0.20605762,0.0,0.0,3,-0.217192
0.0071077347,0.12343956,-0.38987738,-0.10460396,1.1056348,0.1673233,0.0,0.0,3,0.239720
0.0032841682,0.121230066,-0.38479733,-0.101457156,1.1110253,0.10781094,0.0,0.0,3,0.561923
-0.00049734116,0.11904689,-0.37923416,-0.09850537,1.113462,0.048731603,0.0,0.0,0,-0.134139
-0.0042787553,0.11676658,-0.3792335,-0.1028256,1.1158986,0.048731573,0.0,0.0,0,-0.141635
-0.008060264,0.11438907,-0.37923282,-0.107145816,1.1183352,0.048731573,0.0,0.0,0,-0.149883
-0.011841774,0.111914426,-0.3792321,-0.11146604,1.1207718,0.048731543,0.0,0.0,0,-0.158979
-0.015623379,0.10934258,-0.37923148,-0.11578627,1.1232083,0.04873152,0.0,0.0,0,-0.169000
-0.019404983,0.106673606,-0.3792308,-0.12010649,1.1256448,0.048731476,0.0,0.0,0,-0.180041
-0.023186684,0.103907496,-0.37923014,-0.124426715,1.1280813,0.048731443,0.0,0.0,0,-0.192181
-0.026968384,0.101044185,-0.37922946,-0.12874693,1.1305178,0.048731424,0.0,0.0,0,-0.205533
-0.03075018,0.098083675,-0.37922877,-0.13306715,1.1329544,0.0487314,0.0,0.0,0,-0.220186
-0.03453207,0.09502602,-0.3792281,-0.13738735,1.1353909,0.04873139,0.0,0.0,0,-0.236223
-0.038313963,0.09187125,-0.3792274,-0.14170757,1.1378274,0.048731513,0.0,0.0,0,-0.253724
-0.042095948,0.08861926,-0.37922674,-0.14602777,1.1402639,0.048731517,0.0,0.0,0,-0.272754
-0.045877934,0.08527015,-0.37922603,-0.15034798,1.1427004,0.048731502,0.0,0.0,0,-0.293363
-0.049660016,0.08182383,-0.37922537,-0.15466817,1.145137,0.04873148,0.0,0.0,3,0.491796
-0.05341158,0.07838238,-0.37517503,-0.15297677,1.1451722,0.0007053742,0.0,0.0,3,10.569466
-0.05713501,0.07492269,-0.37155375,-0.15260857,1.1432967,-0.03750987,0.0,1.0,3,2.037546
-0.060554218,0.07404557,-0.34950215,-0.063537724,1.1676329,0.4707102,0.0,1.0,3,-1.983776
-0.063882634,0.07377506,-0.34278852,-0.033231933,1.1960694,0.5625337,0.0,1.0,3,-2.509451
-0.06718254,0.073406845,-0.33941227,-0.032998495,1.2223275,0.5250759,0.0,1.0,3,-2.280293
-0.070464134,0.07304536,-0.33617073,-0.031321872,1.2462324,0.47805938,0.0,1.0,3,-2.046340
-0.07373037,0.07270676,-0.3332762,-0.028678501,1.2674584,0.42452043,0.0,1.0,3,-1.810851
-0.07698107,0.07238804,-0.33054975,-0.026189525,1.2860686,0.3721999,0.0,1.0,3,-1.695143
-0.08021946,0.07205988,-0.32845742,-0.025389154,1.302706,0.3327493,0.0,1.0,3,-11.443744
-0.08343802,0.071716554,-0.32570532,-0.024868071,1.3174361,0.29460272,0.0,0.0,3,-1.251705
-0.08664455,0.07139069,-0.32368174,-0.022450093,1.3296034,0.24334724,0.0,0.0,3,-0.822332
-0.08982716,0.07110129,-0.32042748,-0.0188416,1.3387109,0.18214914,0.0,0.0,3,-0.659132
-0.09299421,0.07083615,-0.31817007,-0.015968658,1.3450737,0.12725672,0.0,0.0,3,-0.482355
-0.09614573,0.070565134,-0.3161092,-0.014858406,1.3493478,0.08548375,0.0,0.0,3,-0.238412
-0.09928312,0.07030815,-0.31413427,-0.012585819,1.3511091,0.035225756,0.0,0.0,3,0.110815
-0.102399155,0.07007347,-0.311382,-0.009782856,1.3501283,-0.019616524,0.0,0.0,3,0.260292
-0.10549488,0.069822416,-0.3089327,-0.009268749,1.3472612,-0.057341367,0.0,0.0,3,0.357751
-0.10858259,0.0695695,-0.30763993,-0.007951955,1.3422632,-0.09995828,0.0,0.0,3,10.355243
-0.11162205,0.06962336,-0.30344185,0.0038069703,1.3400898,-0.043489125,0.0,1.0,3,0.318957
-0.114626884,0.06980396,-0.2998659,0.009812769,1.3373867,-0.05404668,0.0,1.0,3,0.516906
-0.11759939,0.07005881,-0.29615557,0.014368766,1.3327624,-0.09248343,0.0,1.0,3,0.527410
-0.120548345,0.070355356,-0.29350746,0.016957333,1.3270044,-0.115158044,0.0,1.0,3,0.672465
-0.12347136,0.070708476,-0.29056108,0.020279149,1.3200015,-0.14006165,0.0,1.0,3,0.925055
-0.12636366,0.07115758,-0.28689998,0.025898198,1.3109155,-0.18172134,0.0,1.0,3,1.014101
-0.12923269,0.07167543,-0.28405255,0.030038655,1.3001474,-0.21536069,0.0,1.0,3,1.208805
-0.13207646,0.07225321,-0.2809291,0.033781704,1.2876732,-0.24948409,0.0,1.0,3,1.414064
-0.13489294,0.07288578,-0.27752355,0.037364878,1.2733814,-0.2858375,0.0,1.0,3,1.554980
-0.13768491,0.07354947,-0.2743798,0.03970227,1.2575482,-0.31666252,0.0,1.0,3,1.690958
-0.14045572,0.07423433,-0.27150849,0.041599564,1.2401309,-0.34834602,0.0,1.0,3,1.976543
-0.14320096,0.07495266,-0.26788038,0.044472184,1.2204314,-0.3939881,0.0,1.0,3,2.229753
-0.14592162,0.07568487,-0.26418734,0.046475574,1.1983855,-0.44091946,0.0,1.0,3,2.445247
-0.14862013,0.076415,-0.2606678,0.047618754,1.1741629,-0.48445168,0.0,1.0,3,-7.263544
-0.15129165,0.07714735,-0.25649452,0.048991658,1.1476368,-0.53052115,0.0,0.0,3,3.044636
-0.15393305,0.07789479,-0.2516802,0.051037613,1.1185254,-0.58222854,0.0,0.0,3,3.248643
-0.1565504,0.07865704,-0.24733777,0.05294527,1.0869206,-0.6320945,0.0,0.0,3,3.519770
-0.15914336,0.07943545,-0.24276304,0.054818638,1.0528215,-0.6819856,0.0,0.0,3,3.635586
-0.16172132,0.08020493,-0.23926051,0.05509669,1.0168679,-0.7190755,0.0,0.0,3,3.917424
-0.16427651,0.080960095,-0.23484516,0.05503533,0.9790831,-0.7556968,0.0,0.0,3,4.223939
-0.16680089,0.0817081,-0.22933514,0.05530493,0.9392465,-0.79673404,0.0,0.0,0,3.841982
-0.16933651,0.082371436,-0.22916606,0.05090711,0.8994142,-0.7966468,0.0,0.0,0,3.835969
-0.1718831,0.08295072,-0.22900176,0.046504866,0.8595863,-0.7965596,0.0,0.0,0,3.829729
-0.17444038,0.08344653,-0.22884254,0.04209834,0.81976277,-0.79647243,0.0,0.0,0,3.823293
-0.17700768,0.08385967,-0.22868857,0.037687663,0.7799436,-0.7963853,0.0,0.0,0,3.816618
-0.17958479,0.084190615,-0.22854018,0.033272985,0.74012876,-0.79629815,0.0,0.0,0,3.809734
-0.18217134,0.08443988,-0.22839761,0.028854456,0.7003183,-0.7962111,0.0,0.0,0,3.802655
-0.18476686,0.08460811,-0.22826102,0.024432229,0.66051215,-0.79612404,0.0,0.0,0,3.795390
-0.18737087,0.08469566,-0.22813067,0.020006472,0.6207104,-0.79603696,0.0,0.0,0,3.787935
-0.18998298,0.08470317,-0.22800675,0.01557735,0.58091295,-0.79595,0.0,0.0,0,3.780305
-0.19260283,0.084631145,-0.22788939,0.011145039,0.5411199,-0.79586303,0.0,0.0,0,3.772535
-0.19522972,0.084479935,-0.22777884,0.0067097144,0.50133115,-0.7957762,0.0,0.0,0,3.764613
-0.1978633,0.08424998,-0.22767524,0.0022715614,0.46154675,-0.7956892,0.0,0.0,0,3.756544
-0.20050307,0.083941706,-0.22757883,-0.0021692314,0.42176673,-0.79560226,0.0,0.0,0,3.748379
-0.20314845,0.083555326,-0.22748971,-0.0066124722,0.38199103,-0.7955154,0.0,0.0,0,3.740106
-0.20579901,0.0830912,-0.227408,-0.01105797,0.34221965,-0.79542863,0.0,0.0,0,3.731742
-0.20845413,0.08254968,-0.22733386,-0.0155055225,0.30245262,-0.7953418,0.0,0.0,0,3.723299
-0.21111336,0.081931055,-0.22726735,-0.019954925,0.26268995,-0.795255,0.0,0.0,0,3.714794
-0.2137762,0.081235394,-0.22720864,-0.02440598,0.22293161,-0.7951683,0.0,0.0,0,3.706247
-0.21644206,0.08046299,-0.22715779,-0.028858472,0.1831776,-0.7950815,0.0,0.0,0,3.697673
-0.21911034,0.07961398,-0.22711487,-0.03331219,0.14342792,-0.79499483,0.0,0.0,0,3.689071
-0.22178058,0.07868851,-0.22707994,-0.037766933,0.10368259,-0.79490817,0.0,0.0,0,3.680469
-0.22445217,0.07768673,-0.22705308,-0.04222249,0.06394159,-0.7948215,0.0,0.0,0,3.671858
-0.22712469,0.076608546,-0.22703433,-0.046678625,0.024204917,-0.7947349,0.0,0.0,0,0.557803
-0.22979741,0.075454056,-0.22702369,-0.051135145,-0.015527419,-0.7946483,0.0,0.0,0,-4.290862
-0.2324698,0.07422331,-0.22702119,-0.05559183,-0.055255443,-0.79456174,0.0,0.0,3,-3.633178
-0.23506775,0.072903164,-0.21777837,-0.060744245,-0.096842684,-0.83174646,0.0,0.0,3,-3.843783
-0.23759165,0.071500905,-0.20871027,-0.0657235,-0.14025383,-0.868225,0.0,0.0,3,-4.127357
-0.2400488,0.07001597,-0.20067485,-0.07085187,-0.18529195,-0.90076464,0.0,0.0,0,-4.853720
-0.2425025,0.068460286,-0.2007155,-0.07534548,-0.23032378,-0.9006387,0.0,0.0,0,-4.861907
-0.24495205,0.0668335,-0.2007678,-0.07983767,-0.27534932,-0.9005126,0.0,0.0,0,-4.869894
-0.24739666,0.06513527,-0.20083165,-0.0843281,-0.32036856,-0.90038663,0.0,0.0,0,-4.877686
-0.24983554,0.0633653,-0.20090692,-0.08881643,-0.3653815,-0.90026075,0.0,0.0,0,-4.885279
-0.25226793,0.061523233,-0.20099351,-0.093302295,-0.41038817,-0.90013486,0.0,0.0,0,-4.892656
-0.25469312,0.05960835,-0.20109117,-0.09778539,-0.45538855,-0.90000904,0.0,0.0,2,-2.292929
-0.2569232,0.05827311,-0.18238476,-0.07328653,-0.50049233,-0.9020778,0.0,0.0,2,-2.194911
-0.2589613,0.057772074,-0.16366155,-0.037628505,-0.5461896,-0.91394824,0.0,0.0,2,11.454329
-0.26032966,0.05897678,-0.11349913,0.043808144,-0.57331836,-0.5425161,1.0,0.0,2,-1.185304
-0.26096082,0.06143354,-0.053152658,0.10486631,-0.5850961,-0.23561478,1.0,0.0,2,-3.420984
-0.26128393,0.06454011,-0.021622412,0.1332944,-0.5977943,-0.253964,1.0,0.0,2,-14.436969
-0.26145354,0.06829649,-0.0057756198,0.16180672,-0.61120147,-0.2681435,0.0,0.0,2,-5.965131
-0.2610318,0.0728659,0.05273508,0.19809105,-0.6239875,-0.25572112,0.0,0.0,2,-6.286032
-0.26023585,0.07825413,0.090267904,0.23429276,-0.63702196,-0.26068872,0.0,0.0,2,-7.653655
-0.25881186,0.08448373,0.15247813,0.27184,-0.6494506,-0.24857256,0.0,0.0,2,-8.792172
-0.2568621,0.09188291,0.2053031,0.32356006,-0.6623085,-0.25715867,0.0,0.0,0,-0.992769
-0.25491148,0.09918667,0.20529015,0.31922865,-0.6751663,-0.25715572,0.0,0.0,0,-1.011023
-0.25295988,0.10639487,0.20527697,0.31489736,-0.6880239,-0.25715277,0.0,0.0,0,-1.028427
-0.25100738,0.11350759,0.20526358,0.31056622,-0.7008814,-0.25714985,0.0,0.0,0,-1.044941
-0.24905396,0.12052475,0.20525,0.30623516,-0.71373874,-0.25714692,0.0,0.0,0,-1.060582
-0.24709955,0.12744635,0.20523617,0.30190423,-0.72659594,-0.25714397,0.0,0.0,0,-1.075368
-0.24514417,0.13427247,0.20522216,0.29757345,-0.739453,-0.25714105,0.0,0.0,0,-1.089279
-0.24318781,0.14100295,0.20520791,0.29324275,-0.7523099,-0.25713807,0.0,0.0,0,-1.102364
-0.24123049,0.1476378,0.20519347,0.28891218,-0.7651667,-0.25713515,0.0,0.0,0,-1.114614
-0.23927207,0.1541771,0.20517883,0.28458172,-0.7780233,-0.25713223,0.0,0.0,0,-1.126070
-0.2373127,0.16062063,0.205164,0.2802514,-0.7908798,-0.25712928,0.0,0.0,0,-1.136743
-0.23535223,0.1669686,0.20514897,0.27592123,-0.8037361,-0.25712633,0.0,0.0,0,-1.146667
-0.23339072,0.17322078,0.20513375,0.27159116,-0.8165923,-0.2571234,0.0,0.0,0,-1.155866
-0.23142815,0.17937735,0.20511833,0.2672612,-0.8294483,-0.25712043,0.0,0.0,1,-0.964026
-0.22951989,0.18553828,0.19781256,0.26867777,-0.8397186,-0.20540607,0.0,0.0,1,-0.760896
-0.22766551,0.19171079,0.19053902,0.27052212,-0.8472836,-0.151301,0.0,0.0,1,-0.443467
-0.22587547,0.19789182,0.18216488,0.27231634,-0.8520091,-0.0945092,0.0,0.0,0,-0.385884
-0.22408529,0.20397586,0.18216273,0.26799506,-0.8567346,-0.09450906,0.0,0.0,0,-0.391771
-0.22229496,0.20996298,0.18216059,0.26367378,-0.86146003,-0.094508894,0.0,0.0,0,-0.397035
-0.22050448,0.21585296,0.1821584,0.2593525,-0.8661855,-0.09450875,0.0,0.0,0,-0.401727
-0.2187138,0.22164597,0.1821562,0.25503123,-0.87091094,-0.09450858,0.0,0.0,1,-0.285362
-0.21696587,0.22741936,0.17656438,0.25519398,-0.873621,-0.054201655,0.0,0.0,1,-0.090594
-0.21526551,0.23318376,0.17031649,0.25596976,-0.8740534,-0.008648638,0.0,0.0,0,0.010361
-0.21356516,0.23885086,0.17031647,0.25164974,-0.87448585,-0.008648632,0.0,0.0,0,0.007827
-0.2118648,0.24442084,0.17031646,0.24732973,-0.8749183,-0.0086486265,0.0,0.0,0,0.005751
-0.2101644,0.24989356,0.17031643,0.24300973,-0.8753507,-0.008648511,0.0,0.0,0,0.004074
-0.20846406,0.25526914,0.17031641,0.23868972,-0.87578315,-0.008648476,0.0,0.0,0,0.002796
-0.2067637,0.26054743,0.1703164,0.2343697,-0.8762156,-0.008648461,0.0,0.0,0,0.001860
-0.20506334,0.2657286,0.17031637,0.23004968,-0.876648,-0.008648336,0.0,0.0,0,0.001260
-0.20336299,0.27081257,0.17031637,0.22572969,-0.87708044,-0.008648328,0.0,0.0,0,0.000973
-0.20166259,0.27579927,0.17031635,0.22140966,-0.8775129,-0.008648333,0.0,0.0,0,0.000939
-0.19996223,0.28068888,0.17031632,0.21708967,-0.8779453,-0.008648222,0.0,0.0,0,0.001176
-0.19826183,0.28548133,0.17031631,0.21276967,-0.87837774,-0.0086481925,0.0,0.0,0,0.001642
-0.19656153,0.29017648,0.17031631,0.20844966,-0.87881017,-0.008648207,0.0,0.0,0,0.002316
-0.19486113,0.2947745,0.17031628,0.20412967,-0.8792426,-0.008648099,0.0,0.0,0,0.003177
-0.19316073,0.2992753,0.17031626,0.19980966,-0.87967503,-0.008648078,0.0,0.0,0,0.004199
-0.19146042,0.30367893,0.17031625,0.19548966,-0.88010746,-0.008648058,0.0,0.0,0,0.005392
-0.18976001,0.30798528,0.17031623,0.19116966,-0.88053983,-0.008647954,0.0,0.0,0,0.006689
-0.18805961,0.31219447,0.1703162,0.18684965,-0.8809722,-0.0086479345,0.0,0.0,0,0.008104
-0.18635921,0.31630647,0.17031619,0.18252963,-0.8814046,-0.008647873,0.0,0.0,0,0.009606
-0.18465881,0.3203213,0.17031617,0.1782096,-0.88183695,-0.008647861,0.0,0.0,0,0.011182
-0.18295851,0.3242389,0.17031614,0.17388959,-0.8822693,-0.00864786,0.0,0.0,0,0.012823
-0.18125811,0.3280593,0.17031613,0.16956958,-0.8827017,-0.008647773,0.0,0.0,0,0.014504
-0.17955771,0.33178246,0.17031612,0.16524956,-0.88313407,-0.008647766,0.0,0.0,0,0.016210
-0.17785731,0.33540845,0.17031609,0.16092953,-0.88356644,-0.00864778,0.0,0.0,0,0.017927
-0.17615691,0.33893725,0.17031607,0.15660954,-0.8839988,-0.008647686,0.0,0.0,0,0.019641
-0.1744565,0.34236884,0.17031606,0.15228954,-0.8844312,-0.00864769,0.0,0.0,0,0.021341
-0.1727561,0.3457032,0.17031604,0.1479695,-0.88486356,-0.008647701,0.0,0.0,0,0.023003
-0.1710558,0.34894037,0.17031601,0.1436495,-0.8852959,-0.008647616,0.0,0.0,0,0.024631
-0.16935539,0.35208035,0.17031601,0.13932946,-0.8857283,-0.008647638,0.0,0.0,0,0.026197
-0.16765499,0.35512313,0.170316,0.13500944,-0.8861607,-0.008647654,0.0,0.0,0,0.027687
-0.16595459,0.35806876,0.17031597,0.13068943,-0.88659304,-0.0086476635,0.0,0.0,0,0.029108
-0.16425419,0.36091712,0.17031595,0.12636942,-0.8870254,-0.008647663,0.0,0.0,0,0.030431
-0.16255379,0.3636683,0.17031592,0.122049406,-0.8874578,-0.008647717,0.0,0.0,0,0.031650
-0.16085339,0.36632225,0.1703159,0.11772938,-0.88789016,-0.008647718,0.0,0.0,0,0.032747
-0.15915298,0.36887908,0.17031589,0.11340937,-0.88832253,-0.008647731,0.0,0.0,0,0.033727
-0.15745258,0.3713387,0.17031589,0.10908936,-0.8887549,-0.008647738,0.0,0.0,0,0.034576
-0.15575218,0.3737011,0.17031586,0.10476935,-0.8891873,-0.008647736,0.0,0.0,0,0.035282
-0.15405178,0.3759663,0.17031583,0.10044934,-0.88961965,-0.008647724,0.0,0.0,0,0.035836
-0.15235129,0.3781344,0.17031583,0.09612933,-0.890052,-0.008647716,0.0,0.0,0,0.036240
-0.15065089,0.3802052,0.17031582,0.09180932,-0.8904844,-0.008647716,0.0,0.0,1,0.510383
-0.14899644,0.38228318,0.1641081,0.09345371,-0.8883847,0.041993856,0.0,0.0,1,0.753760
-0.14738798,0.3843584,0.1579819,0.09457011,-0.88391906,0.089313336,0.0,0.0,0,0.537192
-0.14577942,0.38633668,0.1579799,0.090248995,-0.8794534,0.0893132,0.0,0.0,0,0.537383
-0.14417076,0.38821787,0.15797792,0.08592788,-0.8749878,0.08931309,0.0,0.0,0,0.537368
-0.14256191,0.390002,0.15797594,0.08160676,-0.87052214,0.08931298,0.0,0.0,0,0.537126
-0.14095297,0.39168915,0.15797397,0.07728564,-0.8660565,0.08931287,0.0,0.0,0,0.536670
-0.13934374,0.3932793,0.15797201,0.07296451,-0.86159086,0.08931275,0.0,0.0,0,0.535991
-0.1377346,0.39477232,0.15797004,0.068643376,-0.8571252,0.08931263,0.0,0.0,0,0.535091
-0.13612518,0.39616835,0.15796809,0.06432224,-0.8526596,0.0893125,0.0,0.0,0,0.533962
-0.13451567,0.3974674,0.15796615,0.06000109,-0.84819394,0.08931237,0.0,0.0,0,0.532621
-0.13290605,0.3986694,0.15796421,0.05567994,-0.8437283,0.08931221,0.0,0.0,0,0.531058
-0.13129625,0.3997744,0.15796229,0.051358785,-0.8392627,0.089312114,0.0,0.0,0,0.529297
-0.12968636,0.40078235,0.15796037,0.047037624,-0.83479714,0.089312,0.0,0.0,0,0.527338
-0.12807636,0.40169322,0.15795846,0.04271646,-0.83033156,0.08931188,0.0,0.0,0,0.525189
-0.12646618,0.4025071,0.15795657,0.038395282,-0.825866,0.08931176,0.0,0.0,0,0.522863
-0.1248559,0.403224,0.15795466,0.0340741,-0.8214004,0.089311644,0.0,0.0,0,0.520387
-0.12324543,0.40384385,0.15795279,0.029752918,-0.8169348,0.089311555,0.0,0.0,0,0.517760
-0.12163486,0.4043667,0.15795091,0.025431726,-0.81246924,0.089311436,0.0,0.0,0,0.515008
-0.120024204,0.40479255,0.15794905,0.021110533,-0.80800366,0.08931132,0.0,0.0,0,0.512168
-0.11841345,0.4051213,0.15794718,0.01678933,-0.8035381,0.08931118,0.0,0.0,0,0.509227
-0.1168025,0.4053531,0.15794533,0.012468126,-0.7990725,0.08931102,0.0,0.0,0,0.506237
-0.11519136,0.40548787,0.15794349,0.008146913,-0.794607,0.089310884,0.0,0.0,0,0.503206
-0.11358023,0.40552562,0.15794165,0.0038256953,-0.79014146,0.08931078,0.0,0.0,0,0.500175
-0.111968994,0.40546632,0.15793982,-0.0004955277,-0.78567594,0.08931066,0.0,0.0,0,0.497148
-0.11035757,0.40531012,0.15793799,-0.004816756,-0.7812104,0.08931054,0.0,0.0,0,0.494183
-0.108745955,0.40505677,0.15793619,-0.00913799,-0.7767449,0.08931043,0.0,0.0,0,0.491261
-0.107134245,0.4047065,0.15793438,-0.01345923,-0.7722794,0.08931031,0.0,0.0,0,0.488445
-0.10552244,0.4042592,0.15793258,-0.017780475,-0.76781386,0.0893102,0.0,0.0,0,0.485737
-0.10391054,0.4037149,0.15793079,-0.022101725,-0.76334834,0.08931008,0.0,0.0,0,0.483174
-0.10229854,0.40307352,0.15792902,-0.026422977,-0.7588828,0.08930997,0.0,0.0,0,0.480761
-0.10068636,0.40233523,0.15792724,-0.030744236,-0.7544173,0.08930986,0.0,0.0,0,0.478535
-0.09907408,0.40149987,0.1579255,-0.0350655,-0.74995184,0.08930972,0.0,0.0,0,0.476511
-0.0974616,0.40056753,0.15792374,-0.03938677,-0.7454864,0.08930959,0.0,0.0,0,0.474703
-0.09584904,0.39953822,0.157922,-0.04370805,-0.7410209,0.08930947,0.0,0.0,0,0.473131
-0.09423647,0.39841184,0.15792027,-0.048029337,-0.73655546,0.08930937,0.0,0.0,0,0.471804
-0.09262371,0.39718845,0.15791854,-0.052350625,-0.73209,0.08930927,0.0,0.0,0,0.470728
-0.091010764,0.39586818,0.15791681,-0.056671917,-0.72762454,0.089309156,0.0,0.0,0,0.469939
-0.08939771,0.39445075,0.15791512,-0.060993213,-0.7231591,0.089309044,0.0,0.0,0,0.469404
-0.08778467,0.3929364,0.15791342,-0.06531452,-0.7186936,0.08930893,0.0,0.0,0,0.469166
-0.08617143,0.391325,0.15791173,-0.06963583,-0.71422815,0.0893088,0.0,0.0,0,0.469208
-0.08455811,0.3896166,0.15791005,-0.07395715,-0.7097627,0.08930868,0.0,0.0,0,0.469525
-0.08294468,0.3878113,0.15790838,-0.07827847,-0.7052973,0.089308545,0.0,0.0,0,0.470161
-0.08133106,0.38590887,0.15790671,-0.0825998,-0.7008319,0.089308426,0.0,0.0,0,0.471066
-0.079717256,0.38390952,0.15790504,-0.086921126,-0.6963665,0.08930832,0.0,0.0,0,0.472258
-0.07810354,0.38181317,0.1579034,-0.09124246,-0.6919011,0.08930822,0.0,0.0,0,0.473751
-0.07648964,0.37961978,0.15790175,-0.0955638,-0.6874357,0.089308076,0.0,0.0,0,0.475508
-0.07487564,0.37732947,0.15790012,-0.099885136,-0.6829703,0.08930796,0.0,0.0,0,0.477558
-0.073261455,0.37494206,0.1578985,-0.10420648,-0.6785049,0.08930784,0.0,0.0,0,0.479871
-0.07164717,0.3724577,0.15789689,-0.10852783,-0.6740395,0.089307725,0.0,0.0,0,0.482442
-0.07003279,0.3698764,0.1578953,-0.1128492,-0.6695741,0.08930759,0.0,0.0,0,0.485288
-0.06841831,0.36719808,0.15789369,-0.11717056,-0.6651087,0.08930744,0.0,0.0,0,0.488372
-0.06680374,0.36442274,0.15789211,-0.121491924,-0.66064334,0.089307316,0.0,0.0,0,0.491707
-0.06518908,0.36155042,0.15789053,-0.12581329,-0.656178,0.0893072,0.0,0.0,0,0.495278
-0.063574314,0.3585811,0.15788898,-0.13013467,-0.65171266,0.089307055,0.0,0.0,0,0.499082
-0.061959364,0.3555148,0.15788743,-0.13445602,-0.6472473,0.08930696,0.0,0.0,0,0.503106
-0.060344316,0.35235152,0.15788586,-0.13877742,-0.642782,0.08930682,0.0,0.0,0,0.507340
-0.05872927,0.34909123,0.15788433,-0.1430988,-0.63831663,0.08930673,0.0,0.0,0,0.511775
-0.057114027,0.34573403,0.1578828,-0.1474202,-0.6338513,0.0893066,0.0,0.0,0,0.516431
-0.055498697,0.3422797,0.15788127,-0.15174158,-0.62938595,0.08930651,0.0,0.0,0,0.521246
-0.053883266,0.33872855,0.15787975,-0.15606299,-0.6249206,0.08930639,0.0,0.0,0,0.526272
-0.05226774,0.33508024,0.15787825,-0.16038439,-0.62045527,0.08930625,0.0,0.0,0,0.531438
-0.050652027,0.33133507,0.15787674,-0.1647058,-0.61599,0.089306116,0.0,0.0,0,0.536795
-0.049036313,0.32749286,0.15787525,-0.16902724,-0.6115247,0.08930598,0.0,0.0,0,0.542308
-0.0474205,0.32355368,0.15787378,-0.17334865,-0.6070594,0.08930586,0.0,0.0,0,0.547964
-0.045804597,0.31951755,0.1578723,-0.17767008,-0.60259414,0.08930573,0.0,0.0,0,0.553780
-0.044188596,0.3153844,0.15787086,-0.18199152,-0.59812886,0.08930564,0.0,0.0,0,0.559728
-0.0425724,0.31115422,0.15786941,-0.18631296,-0.5936636,0.08930554,0.0,0.0,0,0.565799
-0.040956117,0.30682713,0.15786798,-0.19063441,-0.5891983,0.08930542,0.0,0.0,0,0.572002
-0.03933983,0.30240306,0.15786657,-0.19495586,-0.584733,0.08930532,0.0,0.0,0,0.578326
-0.03772335,0.297882,0.15786514,-0.19927731,-0.5802677,0.089305185,0.0,0.0,0,0.584758
-0.036106873,0.29326394,0.15786375,-0.20359875,-0.57580245,0.08930505,0.0,0.0,0,0.591292
-0.0344903,0.28854892,0.15786237,-0.20792021,-0.5713372,0.08930493,0.0,0.0,0,0.597926
-0.032873534,0.28373694,0.15786098,-0.21224166,-0.566872,0.08930482,0.0,0.0,0,0.604667
-0.031256676,0.27882794,0.15785961,-0.21656314,-0.5624068,0.089304656,0.0,0.0,0,0.611481
-0.029639816,0.273822,0.15785824,-0.22088459,-0.55794156,0.089304574,0.0,0.0,0,0.618384
-0.028022861,0.26871908,0.15785688,-0.22520608,-0.55347633,0.08930446,0.0,0.0,0,0.625363
-0.026405811,0.26351917,0.15785554,-0.22952756,-0.5490111,0.08930432,0.0,0.0,0,0.632416
-0.02478857,0.25822228,0.1578542,-0.23384905,-0.5445459,0.089304194,0.0,0.0,0,0.639530
-0.02317133,0.2528284,0.15785287,-0.23817053,-0.54008067,0.08930406,0.0,0.0,0,0.646694
-0.021553993,0.2473376,0.15785156,-0.24249202,-0.53561544,0.08930394,0.0,0.0,0,0.653914
-0.019936467,0.2417498,0.15785025,-0.24681352,-0.5311503,0.08930378,0.0,0.0,0,0.661183
-0.01831894,0.23606502,0.15784895,-0.25113502,-0.5266851,0.08930363,0.0,0.0,0,0.668492
-0.016701221,0.23028325,0.15784767,-0.2554565,-0.52221996,0.08930349,0.0,0.0,0,0.675819
-0.015083599,0.22440456,0.15784639,-0.259778,-0.5177548,0.08930337,0.0,0.0,0,0.683188
-0.013465786,0.2184288,0.15784511,-0.2640995,-0.51328963,0.08930322,0.0,0.0,0,0.690554
-0.011847878,0.21235615,0.15784384,-0.26842102,-0.50882447,0.089303106,0.0,0.0,0,0.697922
-0.0102298735,0.20618656,0.1578426,-0.27274254,-0.5043593,0.089303,0.0,0.0,0,0.705297
-0.00861187,0.19991992,0.15784137,-0.277064,-0.49989417,0.08930288,0.0,0.0,0,0.712636
-0.006993675,0.19355637,0.15784015,-0.2813855,-0.49542904,0.089302756,0.0,0.0,0,0.719952
-0.0053753853,0.18709582,0.15783893,-0.285707,-0.4909639,0.089302674,0.0,0.0,0,0.727202
-0.0037570954,0.18053836,0.15783772,-0.29002854,-0.48649874,0.08930256,0.0,0.0,0,0.734393
-0.0021388053,0.17388383,0.15783653,-0.2943501,-0.4820336,0.08930244,0.0,0.0,0,0.741472
-0.0005203247,0.16713239,0.15783535,-0.29867163,-0.4775685,0.08930232,0.0,0.0,0,0.748428
0.0010982513,0.16028403,0.15783417,-0.30299315,-0.4731034,0.08930222,0.0,0.0,0,0.755223
0.0027169227,0.15333869,0.15783301,-0.30731466,-0.4686383,0.08930206,0.0,0.0,0,0.761803
0.0043355944,0.14629634,0.15783185,-0.31163618,-0.4641732,0.08930194,0.0,0.0,0,0.768115
0.0059544565,0.13915701,0.1578307,-0.31595773,-0.4597081,0.08930182,0.0,0.0,0,0.774070
0.0075733187,0.13192077,0.15782955,-0.32027927,-0.45524302,0.089301705,0.0,0.0,0,0.779583
0.009192372,0.12458754,0.15782844,-0.32460082,-0.45077798,0.08930158,0.0,0.0,0,0.784526
0.010811329,0.1171574,0.15782733,-0.32892233,-0.44631287,0.089301445,0.0,0.0,0,0.788703
0.012430477,0.10963026,0.15782623,-0.33324388,-0.4418478,0.089301325,0.0,0.0,0,0.791882
0.014049625,0.10200614,0.15782514,-0.33756542,-0.4373828,0.08930106,0.0,0.0,0,0.793719
0.015668869,0.09428509,0.15782405,-0.34188697,-0.43291774,0.08930092,0.0,0.0,0,0.793730
0.017288208,0.08646706,0.15782298,-0.3462085,-0.4284527,0.08930079,0.0,0.0,0,0.791183
0.018907642,0.07855211,0.15782192,-0.3505301,-0.42398766,0.08930066,0.0,0.0,0,0.785024
0.020527173,0.070540175,0.15782085,-0.35485166,-0.41952264,0.08930051,0.0,0.0,0,0.773598
0.022146702,0.06243125,0.15781984,-0.35917324,-0.41505766,0.089300394,0.0,0.0,0,0.754310
0.023766423,0.054225408,0.15781881,-0.3634948,-0.41059265,0.08930023,0.0,0.0,0,0.723049
0.025386047,0.045922574,0.1578178,-0.3678164,-0.4061276,0.08930007,0.0,0.0,0,10.673191
0.027005767,0.037522826,0.15781677,-0.37213796,-0.40166262,0.08929993,1.0,0.0,0,7.132802
0.028573323,0.030021511,0.14071572,-0.33008093,-0.380515,0.42875308,1.0,0.0,0,8.365704
0.030242253,0.02332972,0.13125744,-0.28881115,-0.3416931,0.7781992,1.0,0.0,0,9.083486
0.03203888,0.017298399,0.12499033,-0.2561675,-0.28484762,1.1370013,1.0,0.0,0,9.028267
0.033918284,0.011722193,0.11989075,-0.23611377,-0.21531424,1.3908517,1.0,0.0,0,7.766997
0.03583298,0.006288109,0.11786099,-0.2325264,-0.14126804,1.4811319,1.0,0.0,0,6.635562
0.037729263,0.0007970905,0.11648939,-0.23874784,-0.06859545,1.4535186,1.0,0.0,0,5.822307
0.03962612,-0.004722252,0.11627837,-0.24355945,0.0039619463,1.4512033,0.0,1.0,0,-4.030070
0.041472815,-0.009618535,0.1275345,-0.21906497,0.05800316,1.0777628,0.0,1.0,0,-2.139986
0.043172646,-0.013967898,0.13445157,-0.19507816,0.093161926,0.70315284,0.0,1.0,0,-0.329067
0.04471445,-0.017835036,0.13777022,-0.17297624,0.109475255,0.3263103,0.0,1.0,0,1.694308
0.04603634,-0.021292688,0.13506332,-0.15345469,0.1066598,-0.056255788,0.0,1.0,0,13.945844
0.04721899,-0.023871364,0.12451246,-0.1141763,0.1005038,-0.123072684,1.0,1.0,0,3.821732
0.048303127,-0.025493886,0.11477794,-0.071693346,0.09418623,-0.12636133,1.0,1.0,0,3.145014
0.04928894,-0.026166013,0.10514637,-0.02947283,0.08768033,-0.1301254,1.0,1.0,0,1.790359
0.05018749,-0.025910916,0.09571052,0.011669652,0.081878625,-0.11603977,1.0,1.0,0,-0.148102
0.051029395,-0.02478639,0.08675648,0.050116908,0.07933805,-0.050815113,1.0,1.0,0,-1.378596
0.051826954,-0.022956267,0.079292014,0.081316434,0.07978654,0.0089553045,1.0,1.0,0,-1.368129
0.052584935,-0.02066734,0.07412544,0.10164751,0.08142254,0.032699145,1.0,1.0,0,-0.767971
0.053343106,-0.01820915,0.07412538,0.109164305,0.08308967,0.03333897,1.0,1.0,0,0.258662
0.05408869,-0.015837397,0.07389215,0.105380066,0.08375603,0.01333974,1.0,1.0,0,0.390395
0.05483532,-0.013598468,0.073918074,0.099465646,0.08449599,0.014801143,1.0,1.0,0,-19.754372
0.055582047,-0.0114571,0.073917076,0.09512957,0.08523853,0.014852327,0.0,0.0,0,0.227865
0.056328677,-0.009412828,0.07391481,0.09081292,0.08598082,0.014847228,0.0,0.0,0,0.212644
0.05707531,-0.007465794,0.07391263,0.08649137,0.08672297,0.014844611,0.0,0.0,0,0.197683
0.057821847,-0.005616,0.07391045,0.082169645,0.087464996,0.014842113,0.0,0.0,1,0.792958
0.058473013,-0.0038794302,0.06249992,0.077024564,0.09005564,0.05181821,0.0,0.0,1,0.469425
0.059049606,-0.002260878,0.05314855,0.07165711,0.09454585,0.08981094,0.0,0.0,1,0.266291
0.059546374,-0.000754478,0.043119565,0.06652577,0.10106291,0.13034967,0.0,0.0,1,-0.033721
0.05997038,0.00064974785,0.03397789,0.061819322,0.10941356,0.16702369,0.0,0.0,1,-0.210639
0.060311317,0.0019465423,0.023604143,0.056832246,0.11985369,0.20881584,0.0,0.0,0,-0.684483
0.060652066,0.0031474924,0.023585422,0.052499842,0.13029228,0.20878462,0.0,0.0,0,-0.691312
0.060992338,0.004252634,0.02356737,0.04816646,0.14073001,0.2087675,0.0,0.0,0,-0.698936
0.061332323,0.005261824,0.023549426,0.04383312,0.15116659,0.20874405,0.0,0.0,0,-0.707733
0.061671924,0.0061750626,0.023531782,0.03949959,0.16160199,0.20872064,0.0,0.0,1,9.451725
0.061905764,0.007086978,0.014788734,0.039571963,0.1701877,0.17170219,0.0,1.0,1,-0.536180
0.06201639,0.008037732,0.006121044,0.041681007,0.17514153,0.09907486,0.0,1.0,1,-0.350520
0.06197529,0.009003864,-0.006212202,0.042688295,0.17724602,0.042093895,0.0,1.0,0,-9.792973
0.061933614,0.0098733995,-0.006238663,0.038397264,0.17932315,0.04154805,0.0,0.0,0,10.188754
0.06188612,0.010661111,-0.006293086,0.03482195,0.18086834,0.030904898,0.0,1.0,0,0.228865
0.06182804,0.011376509,-0.0064657694,0.03171631,0.18152878,0.013210101,0.0,1.0,0,0.312022
0.061757945,0.012023101,-0.006665302,0.02877882,0.18118522,-0.0068694614,0.0,1.0,0,0.413766
0.061676692,0.012599097,-0.006849912,0.025756886,0.17990299,-0.025642853,0.0,1.0,0,0.511513
0.061586093,0.013100419,-0.006999325,0.022529986,0.17783423,-0.041373745,0.0,1.0,0,0.592142
0.061487865,0.013523064,-0.007114409,0.01910508,0.1751249,-0.05418563,0.0,1.0,0,0.652607
0.061383247,0.01386467,-0.0072087995,0.015565087,0.17185996,-0.06529814,0.0,1.0,0,0.695853
0.06127224,0.014125023,-0.007298735,0.012007867,0.16805306,-0.07613877,0.0,1.0,0,0.727632
0.061157513,0.014307627,-0.007145215,0.008598247,0.16371962,-0.08667119,0.0,1.0,0,0.748028
0.061040115,0.014416275,-0.006841668,0.0053591286,0.15881766,-0.09804192,0.0,1.0,0,0.744770
0.06091957,0.014453468,-0.0065122223,0.002234594,0.15328448,-0.110666394,0.0,1.0,0,0.698991
0.060795784,0.014420781,-0.0061671855,-0.00082660845,0.14708516,-0.1239897,0.0,1.0,0,0.624442
0.060668755,0.0143185,-0.0058191745,-0.003881623,0.14021526,-0.13740131,0.0,1.0,0,0.581841
0.060538482,0.014146123,-0.0054773437,-0.0069715087,0.13269222,-0.1504649,0.0,1.0,0,0.585400
0.060405158,0.013902721,-0.005145537,-0.010113058,0.1245421,-0.16300705,0.0,1.0,0,0.615385
0.060268976,0.013587437,-0.0048229964,-0.013302227,0.11578832,-0.1750811,0.0,1.0,0,0.407937
0.060139943,0.013166365,-0.0044913073,-0.018085787,0.107440695,-0.16695221,0.0,1.0,0,-9.563950
0.06001091,0.012649093,-0.0044903373,-0.022411589,0.099093124,-0.16695136,0.0,0.0,0,0.434296
0.059881877,0.012035475,-0.004489438,-0.026737398,0.0907456,-0.16695045,0.0,0.0,0,0.433621
0.059752654,0.011325512,-0.0044886125,-0.03106321,0.082398124,-0.16694954,0.0,0.0,0,0.433301
0.05962343,0.010519419,-0.0044878596,-0.03538903,0.0740507,-0.16694863,0.0,0.0,0,0.433001
0.059494305,0.00961698,-0.00448718,-0.03971485,0.06570335,-0.16694744,0.0,0.0,0,0.432552
0.059364986,0.008618269,-0.004486573,-0.044040676,0.05735601,-0.16694628,0.0,0.0,0,0.431748
0.059235763,0.007523248,-0.004486039,-0.048366502,0.049008753,-0.16694511,0.0,0.0,0,0.430536
0.059106447,0.006331954,-0.004485578,-0.05269234,0.040661536,-0.16694431,0.0,0.0,0,0.428798
0.058977127,0.005044458,-0.00448519,-0.05701817,0.03231435,-0.16694352,0.0,0.0,0,0.426463
0.058847807,0.0036606526,-0.004484874,-0.061344005,0.023967203,-0.1669427,0.0,0.0,0,0.423471
0.058718394,0.002180574,-0.004484632,-0.06566984,0.015620115,-0.16694191,0.0,0.0,0,0.419734
0.05858908,0.00060418603,-0.004484463,-0.06999568,0.0072730626,-0.16694114,0.0,0.0,0,0.200438
0.058459662,-0.0010684752,-0.0044843676,-0.074321516,-0.0010739608,-0.16694032,0.0,0.0,0,24.266277
0.05834379,-0.0016621017,-0.0069166287,-0.026398217,-0.0056805424,-0.092120685,1.0,1.0,0,1.825184
0.058320522,-0.0014379406,-0.0040911636,0.010000663,-0.003942078,0.03475616,1.0,1.0,0,-2.672547
0.05835619,-0.0005666876,-0.0030744723,0.03872643,0.0026037043,0.13091771,1.0,1.0,0,-0.036734
0.058377553,0.0001837945,-0.0036020535,0.033334974,0.008271401,0.11335428,1.0,1.0,0,-10.153217
0.05839348,0.0008509135,-0.0036701472,0.029611893,0.013472285,0.10401775,0.0,1.0,0,-0.111638
0.05840254,0.0014385319,-0.0037585578,0.026066352,0.018070621,0.091966726,0.0,1.0,0,-0.052804
0.05840435,0.0019467211,-0.003848248,0.022530876,0.022060914,0.079805665,0.0,1.0,0,0.006079
0.0583992,0.0023755168,-0.0039390875,0.019004392,0.02543824,0.06754636,0.0,1.0,0,0.064363
0.058386803,0.0027250624,-0.004030936,0.015485722,0.028198322,0.05520169,0.0,1.0,0,0.120500
0.058367252,0.002995429,-0.004123631,0.011973617,0.030337572,0.04278507,0.0,1.0,0,0.170612
0.058340453,0.0031866168,-0.0042170035,0.008466744,0.031853106,0.030310873,0.0,1.0,0,0.202251
0.058306407,0.0032987332,-0.004310876,0.0049637365,0.0327428,0.017793864,0.0,1.0,0,0.196885
0.05826912,0.0033357835,-0.004024218,0.0016415961,0.03303727,0.005889527,0.0,1.0,0,0.059284
0.058228683,0.003297839,-0.0037372275,-0.001679207,0.032735977,-0.0060258517,0.0,1.0,0,-0.103144
0.0581851,0.0031849004,-0.0034503427,-0.0050005023,0.031839006,-0.017939616,0.0,1.0,0,-0.128108
0.058138274,0.0029968596,-0.0031640022,-0.008324089,0.03034704,-0.029839551,0.0,1.0,0,-0.094849
0.0580884,0.0027338243,-0.0028786438,-0.011651738,0.028261371,-0.041713465,0.0,1.0,0,-0.046066
0.058035277,0.002395544,-0.0025946898,-0.01498521,0.0255839,-0.053549312,0.0,1.0,0,0.007508
0.057979204,0.001982019,-0.0023125522,-0.01832618,0.022317125,-0.06533532,0.0,1.0,0,0.062718
0.05791979,0.0014930702,-0.0020326313,-0.02167629,0.018464116,-0.077060096,0.0,1.0,0,0.118277
0.057857323,0.00092866184,-0.0017553013,-0.025037058,0.014028476,-0.08871288,0.0,1.0,0,0.173642
0.057791807,0.0002885437,-0.0014809301,-0.02840995,0.009014295,-0.10028329,0.0,1.0,0,0.228518
0.057723045,-0.00042739153,-0.0012098496,-0.03179629,0.0034262312,-0.11176141,0.0,1.0,0,13.156487
0.057723045,-0.00043311357,-2.44773e-06,-0.0002529639,0.0034276452,2.845609e-05,1.0,1.0,0,-0.002345
0.057721425,-0.00042810678,-0.00016271198,0.00022399049,0.0034288797,2.3336377e-05,1.0,1.0,0,0.017046
0.057720374,-0.00042796374,-0.00010575573,4.7991507e-06,0.0034304545,3.060011e-05,1.0,1.0,0,0.008974
0.057720184,-0.00042796374,-1.5987216e-05,-1.4903142e-06,0.0034307113,4.8694883e-06,1.0,1.0,0,-0.000801
0.05772047,-0.00042796374,2.4162548e-05,-4.225381e-08,0.003430334,-7.1092545e-06,1.0,1.0,0,0.000322
0.05772066,-0.00042796374,2.1062311e-05,1.923805e-08,0.003430021,-6.2032404e-06,1.0,1.0,0,0.001518
0.057720758,-0.00042796374,5.882387e-06,3.5186494e-09,0.0034299225,-1.7309443e-06,1.0,1.0,0,0.000280
0.057720758,-0.00042796374,-3.044735e-06,-1.7564938e-09,0.003429965,8.979717e-07,1.0,1.0,0,-0.000093
0.057720758,-0.00042796374,-3.9206434e-06,-1.6613086e-09,0.003430022,1.155641e-06,1.0,1.0,0,0.000233
0.057720758,-0.00042796374,-1.5713586e-06,-5.992291e-10,0.0034300422,4.6975174e-07,1.0,1.0,0,0.000131
0.057720758,-0.00042796374,2.564113e-07,7.646618e-11,0.0034300464,-8.7149246e-08,1.0,1.0,0,-0.000041
0.057720758,-0.00042796374,6.838396e-07,6.9794955e-11,0.0034300287,-2.1614656e-07,1.0,1.0,0,0.000033
0.057720758,-0.00042796374,3.6606127e-07,1.0627943e-10,0.003430017,-1.2083657e-07,1.0,1.0,0,0.000035
0.057720758,-0.00042796374,1.9357739e-08,-2.6411973e-11,0.0034300112,-2.104776e-08,1.0,1.0,0,-0.000009
0.057720758,-0.00042796374,-1.0964952e-07,1.1690308e-11,0.0034300154,4.6024155e-08,1.0,1.0,0,0.000004
0.057720758,-0.00042796374,-7.9454715e-08,1.3473666e-13,0.0034300098,1.3242752e-08,1.0,1.0,0,0.000006
0.057720758,-0.00042796374,-1.9332024e-08,-2.878976e-11,0.0034300068,1.9727882e-08,1.0,1.0,0,0.000000
0.057720758,-0.00042796374,1.7137703e-08,2.0677733e-10,0.003430006,-2.1018618e-08,1.0,1.0,0,-0.000000
0.057720758,-0.00042796374,2.0631704e-08,1.4489231e-11,0.0034300068,-2.3608258e-08,1.0,1.0,0,0.000002
0.057720758,-0.00042796374,1.1940803e-08,2.8197516e-11,0.0034300003,-2.356278e-08,1.0,1.0,0,0.000001
0.057720758,-0.00042796374,4.519904e-09,2.0033238e-10,0.0034299938,-1.9637678e-08,1.0,1.0,0,0.000001
0.057720758,-0.00042796374,-4.5542198e-10,2.6600146e-11,0.0034299882,-6.0471983e-09,1.0,1.0,0,-0.000001
0.057720758,-0.00042796374,-5.573802e-09,-3.3565995e-15,0.0034299912,2.0739073e-08,1.0,1.0,0,-0.000000
0.057720758,-0.00042796374,-1.0694541e-08,-5.420376e-11,0.003429987,2.3132122e-08,1.0,1.0,0,100
-0.00014257431,1.4182578,-0.014454879,0.32611957,0.00017197117,0.0032742713,0.0,0.0,0,-0.407178
-0.00028533937,1.4255202,-0.014435081,0.32276475,0.00033385292,0.0032384754,0.0,0.0,0,-0.304784
-0.00042800902,1.432686,-0.014435652,0.3184806,0.00049556035,0.0032343958,0.0,0.0,0,-0.291105
-0.0005707741,1.4397546,-0.014436133,0.31415683,0.00065725547,0.003234207,0.0,0.0,0,-0.281525
-0.00071353914,1.4467258,-0.01443661,0.3098344,0.0008189245,0.0032337003,0.0,0.0,0,-0.271886
-0.0008563042,1.4535999,-0.01443709,0.30551273,0.000980574,0.0032332013,0.0,0.0,0,-0.262182
-0.0009990692,1.4603767,-0.014437568,0.30119118,0.0011421796,0.0032325343,0.0,0.0,0,-0.252473
-0.0011418343,1.4670563,-0.014438048,0.29686955,0.0013037676,0.0032319594,0.0,0.0,0,-0.242756
-0.001284504,1.4736387,-0.014438525,0.29254785,0.0014653221,0.0032314132,0.0,0.0,0,-0.233036
-0.001427269,1.4801238,-0.014438997,0.28822613,0.0016268558,0.0032309797,0.0,0.0,0,-0.223321
-0.0015700341,1.4865116,-0.014439469,0.28390437,0.0017883619,0.0032304775,0.0,0.0,0,-0.213620
-0.0017127991,1.4928023,-0.014439942,0.27958256,0.0019498422,0.0032299564,0.0,0.0,0,-0.203905
-0.0018555641,1.4989957,-0.014440412,0.27526075,0.0021112936,0.0032294274,0.0,0.0,0,-0.194191
-0.001998329,1.5050918,-0.014440879,0.27093887,0.0022727116,0.003228904,0.0,0.0,0,-0.184478
-0.0021409988,1.5110906,-0.014441347,0.26661697,0.002434109,0.0032283855,0.0,0.0,0,-0.174765
-0.0022837638,1.5169922,-0.014441812,0.262295,0.0025954857,0.003227905,0.0,0.0,0,-0.165070
-0.0024265288,1.5227966,-0.014442275,0.25797302,0.0027568443,0.003227383,0.0,0.0,0,-0.155357
-0.002569294,1.5285038,-0.014442734,0.253651,0.0029181568,0.003226862,0.0,0.0,0,-0.145650
-0.002712059,1.5341136,-0.0144431945,0.24932891,0.0030794565,0.003226335,0.0,0.0,0,-0.135944
-0.0028549195,1.5396264,-0.014443653,0.24500681,0.0032407406,0.0032258169,0.0,0.0,0,-0.126239
-0.0029977798,1.5450417,-0.01444411,0.24068469,0.0034020005,0.003225309,0.0,0.0,0,-0.116548
-0.003140545,1.5503598,-0.014444565,0.23636252,0.00356323,0.0032247982,0.0,0.0,0,-0.106844
-0.0032834052,1.5555809,-0.014445019,0.23204032,0.0037244377,0.0032243077,0.0,0.0,0,-0.097158
-0.0034262657,1.5607046,-0.014445471,0.22771807,0.0038856198,0.0032238115,0.0,0.0,0,-0.087444
-0.0035691261,1.565731,-0.014445918,0.2233958,0.0040467735,0.0032233074,0.0,0.0,0,0.019607
-0.0037118911,1.5706387,-0.014440702,0.2181197,0.0042079045,0.0032227107,0.0,0.0,0,-0.066160
-0.0038546561,1.5754492,-0.014440703,0.2137997,0.0043690307,0.0032227156,0.0,0.0,0,-0.056473
-0.0039974214,1.5801624,-0.014440705,0.2094797,0.004530152,0.003222691,0.0,0.0,0,-0.046805
-0.004140186,1.5847785,-0.014440703,0.2051597,0.0046912865,0.0032227044,0.0,0.0,0,-0.037121
-0.0042829514,1.5892974,-0.014440703,0.2008397,0.0048524067,0.0032226886,0.0,0.0,0,-0.027457
-0.004425621,1.5937191,-0.014440705,0.19651969,0.0050135297,0.003222691,0.0,0.0,0,-0.017783
-0.004568386,1.5980436,-0.014440703,0.19219969,0.0051746625,0.0032227107,0.0,0.0,0,-0.008126
-0.004711151,1.6022708,-0.014440703,0.1878797,0.0053358017,0.0032227847,0.0,0.0,0,0.001543
-0.0048539164,1.6064008,-0.014440702,0.18355969,0.0054969303,0.003222784,0.0,0.0,0,0.011191
-0.004996681,1.6104338,-0.0144407,0.17923969,0.005658081,0.003222776,0.0,0.0,0,0.020838
-0.0051394464,1.6143695,-0.0144407,0.17491968,0.0058192136,0.0032227922,0.0,0.0,0,0.030491
-0.005282211,1.618208,-0.0144407,0.17059968,0.0059803533,0.003222784,0.0,0.0,0,0.040126
-0.0054249763,1.6219494,-0.0144407,0.16627969,0.006141493,0.0032227717,0.0,0.0,0,0.049769
-0.005567646,1.6255934,-0.014440699,0.16195968,0.006302632,0.0032227736,0.0,0.0,0,0.059390
-0.005710411,1.6291404,-0.014440698,0.15763968,0.0064637675,0.0032227586,0.0,0.0,0,0.069017
-0.005853176,1.63259,-0.014440696,0.15331967,0.006624917,0.0032227717,0.0,0.0,0,0.078624
-0.0059959413,1.6359427,-0.014440696,0.14899968,0.0067860577,0.0032227754,0.0,0.0,0,0.088234
-0.006138706,1.639198,-0.014440696,0.14467968,0.0069471984,0.0032228015,0.0,0.0,0,0.097819
-0.0062814713,1.642356,-0.014440696,0.14035967,0.007108339,0.0032227866,0.0,0.0,0,0.107392
-0.006424236,1.6454171,-0.014440696,0.13603967,0.0072694803,0.0032227938,0.0,0.0,0,0.116967
-0.0065670013,1.6483808,-0.014440696,0.13171966,0.007430621,0.0032227715,0.0,0.0,0,0.126526
-0.0067097666,1.6512473,-0.014440696,0.12739967,0.007591756,0.0032227829,0.0,0.0,0,0.136054
-0.006852436,1.6540166,-0.014440695,0.12307966,0.0077528935,0.0032227642,0.0,0.0,0,0.145575
-0.006995201,1.6566887,-0.014440695,0.118759654,0.007914026,0.0032227747,0.0,0.0,0,0.155060
-0.0071379663,1.6592636,-0.014440695,0.11443964,0.008075167,0.003222764,0.0,0.0,0,0.164531
-0.007280731,1.6617413,-0.014440696,0.11011963,0.008236308,0.0032227717,0.0,0.0,0,0.173958
-0.0074234963,1.6641217,-0.014440696,0.10579964,0.008397453,0.0032227803,0.0,0.0,0,0.183352
-0.007566261,1.6664051,-0.014440696,0.10147962,0.008558594,0.003222794,0.0,0.0,0,0.192715
-0.0077090263,1.6685913,-0.014440696,0.09715962,0.008719732,0.0032227903,0.0,0.0,0,0.202030
-0.007851792,1.67068,-0.014440696,0.09283961,0.008880871,0.0032228045,0.0,0.0,0,0.211272
-0.007994461,1.6726718,-0.014440696,0.08851961,0.009042012,0.0032228,0.0,0.0,0,0.220458
-0.008137226,1.6745661,-0.014440696,0.084199615,0.009203152,0.003222817,0.0,0.0,0,0.229544
-0.008279991,1.6763635,-0.014440696,0.07987961,0.009364288,0.0032228138,0.0,0.0,0,0.238527
-0.008422757,1.6780636,-0.014440696,0.07555961,0.009525425,0.0032228269,0.0,0.0,0,0.247395
-0.008565521,1.6796665,-0.014440696,0.071239606,0.009686563,0.0032228269,0.0,0.0,0,0.256091
-0.008708286,1.6811723,-0.014440698,0.0669196,0.009847694,0.0032229437,0.0,0.0,0,0.264600
-0.008851051,1.6825807,-0.014440698,0.0625996,0.010008827,0.003222943,0.0,0.0,0,0.272837
-0.008993817,1.6838921,-0.014440698,0.058279593,0.010169974,0.0032229268,0.0,0.0,0,0.280757
-0.009136582,1.6851062,-0.014440698,0.053959586,0.010331117,0.003222913,0.0,0.0,0,0.288210
-0.009279251,1.6862233,-0.014440698,0.049639583,0.010492244,0.0032229095,0.0,0.0,0,0.295115
-0.009422016,1.687243,-0.014440698,0.04531958,0.010653383,0.0032228988,0.0,0.0,0,0.301184
-0.009564782,1.6881654,-0.014440698,0.04099958,0.010814523,0.003222902,0.0,0.0,0,0.306132
-0.009707546,1.6889907,-0.014440698,0.036679573,0.010975662,0.0032229063,0.0,0.0,0,0.309426
-0.009850311,1.6897188,-0.014440698,0.032359574,0.011136799,0.0032229065,0.0,0.0,0,0.310301
-0.009993076,1.6903497,-0.014440696,0.028039575,0.011297942,0.003222901,0.0,0.0,0,0.307421
-0.010135842,1.6908836,-0.014440696,0.023719572,0.011459084,0.003222915,0.0,0.0,0,0.298696
-0.010278607,1.6913201,-0.014440696,0.019399572,0.01162021,0.0032229084,0.0,0.0,0,0.280405
-0.010421371,1.6916593,-0.014440696,0.01507957,0.011781341,0.0032228916,0.0,0.0,0,0.246642
-0.010564041,1.6919014,-0.014440696,0.010759568,0.011942484,0.003222874,0.0,0.0,0,0.189001
-0.010706807,1.6920463,-0.014440696,0.006439566,0.012103617,0.0032228623,0.0,0.0,0,0.100620
-0.010849571,1.6920941,-0.014440696,0.0021195638,0.012264755,0.0032228648,0.0,0.0,0,-0.012452
-0.010992336,1.6920446,-0.014440696,-0.0022004384,0.012425888,0.0032228648,0.0,0.0,0,-0.125247
-0.011135101,1.6918979,-0.014440698,-0.0065204403,0.01258702,0.0032228536,0.0,0.0,0,-0.213047
-0.011277867,1.691654,-0.014440699,-0.010840442,0.012748168,0.003222858,0.0,0.0,0,-0.270160
-0.011420632,1.6913129,-0.014440699,-0.015160443,0.012909306,0.0032228618,0.0,0.0,0,-0.303560
-0.011563396,1.6908746,-0.014440699,-0.019480443,0.01307044,0.0032228627,0.0,0.0,0,-0.321629
-0.011706066,1.6903391,-0.0144407,-0.023800446,0.013231591,0.0032228834,0.0,0.0,0,-0.330231
-0.011848832,1.6897064,-0.0144407,-0.028120447,0.01339274,0.0032228958,0.0,0.0,0,-0.333009
-0.011991596,1.6889765,-0.0144407,-0.032440446,0.013553869,0.003222887,0.0,0.0,0,-0.332094
-0.012134361,1.6881496,-0.0144407,-0.03676045,0.013715015,0.003222886,0.0,0.0,0,-0.328749
-0.012277126,1.6872253,-0.0144407,-0.041080453,0.013876166,0.0032228741,0.0,0.0,0,-0.323776
-0.012419892,1.6862038,-0.0144407,-0.045400452,0.014037309,0.0032228716,0.0,0.0,0,-0.317690
-0.012562657,1.6850852,-0.0144407,-0.049720455,0.0141984485,0.0032228627,0.0,0.0,0,-0.310800
-0.012705421,1.6838694,-0.0144407,-0.054040454,0.014359592,0.0032228387,0.0,0.0,0,-0.303310
-0.012848186,1.6825563,-0.0144407,-0.058360457,0.014520732,0.0032228387,0.0,0.0,0,-0.295385
-0.012990857,1.6811459,-0.014440699,-0.06268046,0.014681883,0.003222835,0.0,0.0,0,-0.287141
-0.013133621,1.6796385,-0.014440699,-0.06700046,0.0148430215,0.003222822,0.0,0.0,0,-0.278643
-0.013276386,1.6780338,-0.0144407,-0.07132046,0.015004167,0.0032228406,0.0,0.0,0,-0.269931
-0.013419151,1.676332,-0.014440702,-0.07564046,0.01516531,0.0032228422,0.0,0.0,0,-0.261060
-0.013561917,1.6745329,-0.014440702,-0.079960465,0.015326459,0.003222846,0.0,0.0,0,-0.252076
-0.013704682,1.6726365,-0.014440703,-0.08428047,0.015487598,0.0032228394,0.0,0.0,0,-0.242989
-0.013847446,1.6706431,-0.014440703,-0.08860047,0.015648745,0.0032228436,0.0,0.0,0,-0.233802
-0.013990211,1.6685524,-0.014440705,-0.09292047,0.015809884,0.0032228518,0.0,0.0,0,-0.224545
-0.014132882,1.6663644,-0.014440706,-0.09724047,0.015971027,0.0032228667,0.0,0.0,0,-0.215260
-0.014275646,1.6640795,-0.014440706,-0.10156049,0.016132167,0.0032228648,0.0,0.0,0,-0.205880
-0.014418411,1.6616971,-0.014440706,-0.10588049,0.016293306,0.0032228634,0.0,0.0,0,-0.196488
-0.014561176,1.6592176,-0.014440706,-0.110200495,0.016454447,0.0032228567,0.0,0.0,0,-0.187047
-0.0147039415,1.6566409,-0.014440708,-0.1145205,0.016615588,0.0032228604,0.0,0.0,0,-0.177602
-0.014846707,1.6539671,-0.014440708,-0.11884049,0.01677672,0.0032228373,0.0,0.0,0,-0.168105
-0.014989471,1.651196,-0.014440708,-0.1231605,0.016937856,0.0032228301,0.0,0.0,0,-0.158582
-0.015132236,1.6483277,-0.014440708,-0.12748049,0.017098978,0.00322283,0.0,0.0,0,-0.149071
-0.0152750015,1.6453624,-0.014440708,-0.1318005,0.017260114,0.0032228301,0.0,0.0,0,-0.139499
-0.015417671,1.6422997,-0.014440706,-0.1361205,0.017421255,0.0032228236,0.0,0.0,0,-0.129942
-0.015560436,1.6391399,-0.014440706,-0.14044052,0.017582385,0.00322284,0.0,0.0,0,-0.120354
-0.015703201,1.6358827,-0.014440706,-0.14476053,0.01774353,0.0032228194,0.0,0.0,0,-0.110783
-0.015845966,1.6325285,-0.014440706,-0.14908053,0.017904669,0.0032228376,0.0,0.0,0,-0.101160
-0.015988732,1.6290771,-0.014440706,-0.15340053,0.01806581,0.0032228357,0.0,0.0,0,-0.091555
-0.016131496,1.6255283,-0.014440706,-0.15772054,0.018226942,0.003222832,0.0,0.0,0,-0.081942
-0.016274262,1.6218826,-0.014440706,-0.16204053,0.018388074,0.0032228217,0.0,0.0,0,-0.072310
-0.016417027,1.6181395,-0.014440706,-0.16636056,0.018549211,0.0032228387,0.0,0.0,0,-0.062666
-0.01655979,1.6142992,-0.014440706,-0.17068055,0.018710343,0.0032228213,0.0,0.0,0,-0.053047
-0.016702462,1.6103618,-0.014440706,-0.17500056,0.018871475,0.0032228217,0.0,0.0,0,-0.043380
-0.016845226,1.606327,-0.014440706,-0.17932056,0.019032603,0.0032228106,0.0,0.0,0,-0.033737
-0.01698799,1.6021951,-0.014440706,-0.18364055,0.019193737,0.0032228208,0.0,0.0,0,-0.024089
-0.017130757,1.5979662,-0.014440706,-0.18796057,0.019354876,0.0032228194,0.0,0.0,0,-0.014421
-0.017273521,1.5936399,-0.014440706,-0.19228056,0.019516002,0.0032228138,0.0,0.0,0,-0.004752
-0.017416287,1.5892162,-0.014440706,-0.19660057,0.01967714,0.0032227947,0.0,0.0,0,0.004894
-0.017559052,1.5846957,-0.014440706,-0.20092057,0.019838264,0.0032227826,0.0,0.0,0,0.014585
-0.017701816,1.5800778,-0.014440706,-0.20524056,0.019999398,0.0032227733,0.0,0.0,0,0.024250
-0.017844582,1.5753627,-0.014440706,-0.20956057,0.020160528,0.0032227698,0.0,0.0,0,0.033917
-0.017987251,1.5705504,-0.014440705,-0.21388057,0.020321677,0.0032227896,0.0,0.0,0,0.043603
-0.018130016,1.5656409,-0.014440705,-0.21820058,0.020482812,0.0032227985,0.0,0.0,0,0.053274
-0.018272782,1.5606343,-0.014440706,-0.22252057,0.020643963,0.003222807,0.0,0.0,0,0.062949
-0.018415546,1.5555304,-0.014440706,-0.22684057,0.020805107,0.0032228145,0.0,0.0,0,0.072641
-0.018558312,1.5503294,-0.014440706,-0.23116058,0.020966249,0.003222817,0.0,0.0,0,0.082333
-0.018701077,1.5450311,-0.014440706,-0.23548058,0.021127393,0.003222809,0.0,0.0,0,0.092000
-0.01884384,1.5396358,-0.014440706,-0.23980059,0.021288525,0.0032228087,0.0,0.0,0,0.101709
-0.018986607,1.534143,-0.014440706,-0.24412058,0.02144967,0.0032227915,0.0,0.0,0,0.111377
-0.019129276,1.5285532,-0.014440706,-0.24844058,0.021610817,0.003222777,0.0,0.0,0,0.121091
-0.01927204,1.5228661,-0.014440706,-0.2527606,0.021771953,0.0032227654,0.0,0.0,0,0.130777
-0.019414807,1.5170819,-0.014440706,-0.25708058,0.021933086,0.0032227666,0.0,0.0,0,0.140461
-0.019557571,1.5112004,-0.014440706,-0.26140058,0.022094242,0.0032227803,0.0,0.0,0,0.150163
-0.019700337,1.5052218,-0.014440706,-0.2657206,0.022255378,0.0032227717,0.0,0.0,0,0.159867
-0.019843102,1.4991459,-0.014440706,-0.2700406,0.022416519,0.0032227493,0.0,0.0,0,0.169541
-0.019985866,1.4929729,-0.014440706,-0.27436063,0.022577656,0.0032227617,0.0,0.0,0,0.179262
-0.020128632,1.4867026,-0.014440706,-0.27868062,0.0227388,0.0032227454,0.0,0.0,0,0.188940
-0.020271396,1.4803352,-0.014440706,-0.2830006,0.022899928,0.0032227573,0.0,0.0,0,0.198660
-0.020414066,1.4738704,-0.014440706,-0.28732058,0.023061061,0.0032227666,0.0,0.0,0,0.208350
-0.020556832,1.4673085,-0.014440706,-0.29164058,0.023222217,0.0032227864,0.0,0.0,0,0.218046
-0.020699596,1.4606495,-0.014440705,-0.29596055,0.023383344,0.0032227468,0.0,0.0,0,0.227752
-0.020842362,1.4538932,-0.014440705,-0.30028054,0.023544477,0.0032227673,0.0,0.0,0,0.237447
-0.020985126,1.4470397,-0.014440705,-0.30460054,0.023705607,0.0032227696,0.0,0.0,0,0.247155
-0.02112789,1.440089,-0.014440705,-0.3089205,0.023866745,0.0032227635,0.0,0.0,0,0.256851
-0.021270657,1.4330412,-0.014440706,-0.3132405,0.024027871,0.003222771,0.0,0.0,0,0.266546
-0.021413421,1.4258962,-0.014440706,-0.3175605,0.024188997,0.0032227752,0.0,0.0,0,0.276255
-0.021556187,1.418654,-0.014440706,-0.32188046,0.024350133,0.003222764,0.0,0.0,0,0.285948
-0.021698857,1.4113146,-0.014440706,-0.3262005,0.024511263,0.0032227375,0.0,0.0,0,0.295661
-0.021841621,1.403878,-0.014440706,-0.33052048,0.024672395,0.0032227333,0.0,0.0,0,0.305372
-0.021984387,1.396344,-0.014440706,-0.33484045,0.024833525,0.0032226797,0.0,0.0,0,0.315055
-0.022127151,1.3887131,-0.014440705,-0.33916044,0.024994649,0.0032226834,0.0,0.0,0,0.324780
-0.022269916,1.3809848,-0.014440705,-0.34348044,0.025155777,0.0032226923,0.0,0.0,0,0.334464
-0.022412682,1.3731594,-0.014440705,-0.3478004,0.025316902,0.0032226716,0.0,0.0,0,0.344189
-0.022555446,1.3652366,-0.014440706,-0.3521204,0.02547803,0.0032226746,0.0,0.0,0,0.353872
-0.022698212,1.357217,-0.014440706,-0.3564404,0.02563916,0.0032226767,0.0,0.0,0,0.363600
-0.022840977,1.3490998,-0.014440706,-0.36076036,0.02580027,0.0032226897,0.0,0.0,0,0.373281
-0.022983646,1.3408856,-0.014440706,-0.36508036,0.025961407,0.0032226623,0.0,0.0,0,0.383009
-0.023126412,1.3325741,-0.014440706,-0.36940035,0.02612253,0.003222658,0.0,0.0,0,0.392706
-0.023269176,1.3241653,-0.014440706,-0.37372032,0.026283657,0.0032226567,0.0,0.0,0,0.402403
-0.02341194,1.3156595,-0.014440706,-0.3780403,0.026444793,0.0032226604,0.0,0.0,0,0.412117
-0.023554707,1.3070564,-0.014440706,-0.3823603,0.026605915,0.003222709,0.0,0.0,2,5.466175
-0.023894023,1.2995998,-0.033272568,-0.3313998,0.025960447,-0.012909484,0.0,0.0,2,5.155261
-0.024304867,1.2932339,-0.040196072,-0.28291076,0.025078882,-0.017631548,0.0,0.0,2,5.271791
-0.02459755,1.2879747,-0.029018587,-0.2337338,0.024837377,-0.0048302496,0.0,0.0,0,0.130345
-0.024890136,1.2826185,-0.02901859,-0.23805381,0.024595872,-0.00483023,0.0,0.0,0,0.139946
-0.025182819,1.2771649,-0.02901859,-0.24237381,0.024354367,-0.0048302114,0.0,0.0,0,0.149536
-0.025475502,1.2716143,-0.02901859,-0.24669382,0.024112863,-0.0048301914,0.0,0.0,0,0.159148
-0.02576809,1.2659663,-0.029018587,-0.25101382,0.023871347,-0.004830198,0.0,0.0,0,0.168762
-0.026060771,1.2602211,-0.029018585,-0.2553338,0.023629835,-0.0048302016,0.0,0.0,2,4.660383
-0.026476288,1.2555221,-0.04081609,-0.2088382,0.022903321,-0.014530209,0.0,0.0,2,6.348210
-0.026937198,1.252296,-0.045250967,-0.143377,0.022078032,-0.016506117,0.0,0.0,0,0.001280
-0.02739811,1.2489724,-0.045250963,-0.14769706,0.021252718,-0.016506094,0.0,0.0,0,0.009933
-0.027858924,1.2455518,-0.045250963,-0.1520171,0.020427415,-0.01650609,0.0,0.0,0,0.018673
-0.028319836,1.2420338,-0.045250963,-0.15633717,0.019602112,-0.016506081,0.0,0.0,0,0.027473
-0.02878065,1.2384188,-0.045250963,-0.16065723,0.018776808,-0.01650611,0.0,0.0,0,0.036337
-0.029241562,1.2347066,-0.045250963,-0.1649773,0.017951505,-0.016506113,0.0,0.0,0,0.045275
-0.029702473,1.2308972,-0.04525096,-0.16929737,0.017126193,-0.016506111,0.0,0.0,0,0.054249
-0.030163288,1.2269906,-0.04525096,-0.17361742,0.016300889,-0.016506102,0.0,0.0,0,0.063285
-0.0306242,1.2229867,-0.04525096,-0.1779375,0.015475593,-0.016506111,0.0,0.0,0,0.072352
-0.03108511,1.2188858,-0.04525096,-0.18225756,0.014650286,-0.016506132,0.0,0.0,0,0.081459
-0.031545926,1.2146876,-0.04525096,-0.18657762,0.013824983,-0.016506104,0.0,0.0,2,2.070141
-0.032102965,1.2109874,-0.054436177,-0.16443771,0.012580552,-0.02488857,0.0,0.0,0,0.091885
-0.03265991,1.2071903,-0.054436177,-0.16875787,0.011336113,-0.02488857,0.0,0.0,0,0.100595
-0.033216856,1.2032957,-0.054436177,-0.17307802,0.010091681,-0.024888564,0.0,0.0,0,0.109328
-0.033773802,1.1993042,-0.054436177,-0.17739815,0.008847258,-0.024888571,0.0,0.0,2,4.120956
-0.034327317,1.1962636,-0.054134805,-0.13513656,0.0076474985,-0.02399517,0.0,0.0,2,3.062324
-0.03495779,1.1940591,-0.061497003,-0.09797038,0.0061135245,-0.030679349,0.0,0.0,0,0.013487
-0.035588264,1.1917574,-0.061497003,-0.10229058,0.004579553,-0.03067935,0.0,0.0,0,0.019000
-0.036218643,1.1893586,-0.061497003,-0.106610775,0.00304557,-0.03067935,0.0,0.0,0,0.024877
-0.03684912,1.1868626,-0.061496995,-0.11093097,0.0015115945,-0.030679341,0.0,0.0,2,2.289719
-0.03750639,1.1850152,-0.064049445,-0.08210755,-0.00014258132,-0.033083413,0.0,0.0,2,4.152273
-0.037988186,1.1842012,-0.04732493,-0.036174368,-0.000985441,-0.01685725,0.0,0.0,0,-0.266596
-0.03846989,1.1832902,-0.04732493,-0.040494435,-0.0018283072,-0.01685724,0.0,0.0,0,-0.274217
-0.038951684,1.1822819,-0.04732493,-0.0448145,-0.0026711726,-0.016857233,0.0,0.0,0,-0.279651
-0.039433382,1.1811763,-0.04732493,-0.049134556,-0.0035140447,-0.016857231,0.0,0.0,2,1.066192
-0.039948177,1.1807461,-0.050461184,-0.019131562,-0.0045178737,-0.020076562,0.0,0.0,2,-1.660856
-0.04048004,1.1816423,-0.05207067,0.039831236,-0.0056205727,-0.02205405,0.0,0.0,0,0.061165
-0.041011907,1.1824414,-0.052070677,0.03551113,-0.006723281,-0.022054067,0.0,0.0,0,0.050626
-0.04154377,1.1831433,-0.052070677,0.031191027,-0.007825984,-0.02205407,0.0,0.0,0,0.037688
-0.042075634,1.183748,-0.052070677,0.026870925,-0.008928696,-0.022054082,0.0,0.0,0,0.022218
-0.042607594,1.1842555,-0.052070677,0.022550823,-0.010031402,-0.022054067,0.0,0.0,0,0.004230
-0.043139458,1.1846658,-0.052070677,0.01823072,-0.011134108,-0.02205404,0.0,0.0,0,-0.016213
-0.04367132,1.1849791,-0.052070677,0.013910619,-0.012236803,-0.022054018,0.0,0.0,0,-0.038789
-0.044203185,1.185195,-0.05207069,0.009590517,-0.013339509,-0.02205402,0.0,0.0,0,-0.063164
-0.04473505,1.1853138,-0.052070696,0.0052704145,-0.014442204,-0.022054015,0.0,0.0,0,-0.088708
-0.045266915,1.1853354,-0.052070696,0.00095031265,-0.015544898,-0.022054024,0.0,0.0,0,-0.114775
-0.04579878,1.1852597,-0.052070696,-0.0033697893,-0.016647598,-0.022054039,0.0,0.0,0,-0.140652
-0.046330642,1.185087,-0.052070696,-0.0076898914,-0.017750293,-0.02205406,0.0,0.0,0,-0.165636
-0.046862602,1.1848171,-0.052070707,-0.012009992,-0.018852996,-0.022054072,0.0,0.0,0,-0.189046
-0.047394466,1.1844499,-0.052070715,-0.016330093,-0.019955695,-0.022054063,0.0,0.0,0,-0.210476
-0.04792633,1.1839856,-0.052070715,-0.020650195,-0.0210584,-0.022054058,0.0,0.0,0,-0.229588
-0.048458196,1.1834242,-0.052070726,-0.024970297,-0.022161102,-0.022054043,0.0,0.0,0,-0.246154
-0.04899006,1.1827655,-0.05207073,-0.0292904,-0.023263812,-0.02205402,0.0,0.0,0,-0.260227
-0.049521923,1.1820097,-0.052070744,-0.033610508,-0.024366517,-0.022053998,0.0,0.0,0,-0.271803
-0.050053786,1.1811568,-0.052070744,-0.03793061,-0.025469229,-0.022054007,0.0,0.0,0,-0.281069
-0.05058565,1.1802065,-0.052070744,-0.04225071,-0.026571939,-0.022054017,0.0,0.0,0,-0.288178
-0.051117517,1.1791592,-0.052070744,-0.046570815,-0.027674643,-0.022054031,0.0,0.0,0,-0.293377
-0.051649474,1.1780148,-0.052070748,-0.050890915,-0.028777342,-0.022054033,0.0,0.0,0,-0.296800
-0.05218134,1.176773,-0.05207076,-0.05521102,-0.029880041,-0.022054015,0.0,0.0,0,-0.298733
-0.052713204,1.1754341,-0.052070774,-0.059531126,-0.030982748,-0.022054045,0.0,0.0,0,-0.299272
-0.053245068,1.1739979,-0.052070774,-0.06385122,-0.032085452,-0.022054058,0.0,0.0,0,-0.298674
-0.05377693,1.1724646,-0.052070785,-0.06817133,-0.033188157,-0.022054074,0.0,0.0,0,-0.297015
-0.054308794,1.1708342,-0.052070796,-0.07249142,-0.03429086,-0.02205406,0.0,0.0,0,-0.294470
-0.05484066,1.1691065,-0.052070796,-0.07681153,-0.035393562,-0.022054043,0.0,0.0,0,-0.291127
-0.055372525,1.1672816,-0.052070808,-0.08113163,-0.036496267,-0.022054048,0.0,0.0,0,-0.287126
-0.05590439,1.1653597,-0.052070808,-0.08545174,-0.037598964,-0.022054017,0.0,0.0,0,-0.282485
-0.05643625,1.1633404,-0.052070808,-0.089771844,-0.03870166,-0.02205399,0.0,0.0,0,-0.277366
-0.056968115,1.1612241,-0.052070808,-0.094091944,-0.03980437,-0.022054007,0.0,0.0,0,-0.271756
-0.057499982,1.1590105,-0.052070808,-0.098412044,-0.040907066,-0.022054015,0.0,0.0,0,-0.265747
-0.058031846,1.1566997,-0.05207082,-0.10273215,-0.042009756,-0.022054013,0.0,0.0,0,-0.259400
-0.05856371,1.1542917,-0.052070826,-0.10705225,-0.043112464,-0.022054054,0.0,0.0,0,-0.252752
-0.059095573,1.1517868,-0.052070834,-0.11137236,-0.044215158,-0.022054058,0.0,0.0,0,-0.245786
-0.059627436,1.1491843,-0.052070834,-0.11569246,-0.045317855,-0.022054065,0.0,0.0,0,-0.238606
-0.060159303,1.1464849,-0.052070834,-0.12001256,-0.046420556,-0.02205408,0.0,0.0,0,-0.231208
-0.060691167,1.1436882,-0.052070845,-0.12433267,-0.047523256,-0.02205412,0.0,0.0,0,-0.223604
-0.06122303,1.1407943,-0.052070856,-0.12865277,-0.04862597,-0.022054134,0.0,0.0,3,-0.168111
-0.061659433,1.1377873,-0.040079586,-0.13375963,-0.052141756,-0.070315935,0.0,0.0,3,-0.520683
-0.062035084,1.1346676,-0.032442965,-0.13883851,-0.057199817,-0.10116122,0.0,0.0,3,-0.639608
-0.06233921,1.1314543,-0.023492401,-0.14310476,-0.06404621,-0.13692781,0.0,0.0,3,-0.938884
-0.06254502,1.1281414,-0.011170618,-0.14766888,-0.073360994,-0.18629582,0.0,0.0,3,-1.215470
-0.06267653,1.1247315,-0.0018578799,-0.15215233,-0.084540166,-0.22358343,0.0,0.0,0,-1.201638
-0.06280794,1.1212258,-0.0018591096,-0.15648276,-0.09571924,-0.22358152,0.0,0.0,0,-1.192096
-0.06293917,1.1176248,-0.0018605206,-0.16081317,-0.10689821,-0.22357962,0.0,0.0,0,-1.182559
-0.0630703,1.113928,-0.001862104,-0.16514358,-0.11807711,-0.2235777,0.0,0.0,0,-1.173031
-0.063201234,1.1101358,-0.0018638627,-0.16947398,-0.12925589,-0.22357579,0.0,0.0,0,-1.163490
-0.06333218,1.1062481,-0.0018657937,-0.17380436,-0.14043456,-0.22357388,0.0,0.0,0,-1.153940
-0.06346293,1.1022648,-0.0018679008,-0.17813474,-0.15161316,-0.22357194,0.0,0.0,0,-1.144414
-0.063593484,1.0981859,-0.0018701802,-0.1824651,-0.16279165,-0.22357002,0.0,0.0,0,-1.134871
-0.06372376,1.0940115,-0.0018726314,-0.18679543,-0.17397004,-0.22356808,0.0,0.0,0,-1.125336
-0.063854024,1.0897416,-0.0018752584,-0.19112574,-0.18514834,-0.22356617,0.0,0.0,0,-1.115785
-0.063984014,1.085376,-0.0018780561,-0.19545604,-0.19632655,-0.22356422,0.0,0.0,0,-1.106246
-0.064113714,1.0809147,-0.0018810288,-0.19978629,-0.20750469,-0.22356232,0.0,0.0,0,-1.096696
-0.06424332,1.0763578,-0.001884174,-0.20411655,-0.2186827,-0.22356042,0.0,0.0,0,-1.087160
-0.06437254,1.0717055,-0.0018874921,-0.20844679,-0.22986063,-0.22355855,0.0,0.0,0,-1.077625
-0.06450157,1.0669575,-0.0018909823,-0.21277699,-0.24103847,-0.22355664,0.0,0.0,0,-1.068088
-0.064630315,1.0621139,-0.0018946398,-0.21710715,-0.25221622,-0.22355469,0.0,0.0,0,-1.058541
-0.06475878,1.0571746,-0.0018984682,-0.22143729,-0.26339388,-0.22355278,0.0,0.0,0,-1.049023
-0.06488695,1.0521399,-0.0019024679,-0.22576742,-0.27457145,-0.22355089,0.0,0.0,0,-1.039474
-0.06501484,1.0470095,-0.0019066371,-0.23009752,-0.2857489,-0.22354896,0.0,0.0,0,-1.029943
-0.06514244,1.0417836,-0.0019109731,-0.23442756,-0.2969263,-0.22354703,0.0,0.0,0,-1.020408
-0.065269664,1.0364621,-0.0019154776,-0.2387576,-0.30810353,-0.2235451,0.0,0.0,0,-1.010866
-0.0653965,1.0310448,-0.0019201506,-0.24308759,-0.3192807,-0.22354317,0.0,0.0,0,-1.001334
-0.06552315,1.0255321,-0.0019249914,-0.24741754,-0.33045778,-0.22354126,0.0,0.0,0,-0.991805
-0.06564923,1.0199238,-0.0019299963,-0.25174746,-0.34163475,-0.22353931,0.0,0.0,0,-0.982266
-0.06577511,1.0142198,-0.0019351684,-0.25607735,-0.35281166,-0.2235374,0.0,0.0,0,-0.972709
-0.06590052,1.0084199,-0.0019405056,-0.26040718,-0.36398846,-0.2235355,0.0,0.0,0,-0.963183
-0.06602554,1.0025245,-0.0019460095,-0.26473698,-0.37516516,-0.2235336,0.0,0.0,0,-0.953641
-0.06615019,0.99653333,-0.0019516747,-0.26906672,-0.38634175,-0.2235317,0.0,0.0,0,-0.944118
-0.06627436,0.9904467,-0.0019575064,-0.2733964,-0.39751828,-0.22352977,0.0,0.0,0,-0.934581
-0.066398144,0.9842643,-0.0019634988,-0.27772608,-0.40869465,-0.22352786,0.0,0.0,0,-0.925048
-0.06652155,0.9779862,-0.0019696509,-0.2820557,-0.41987097,-0.22352596,0.0,0.0,0,-0.915516
-0.066644475,0.9716124,-0.0019759666,-0.28638527,-0.4310472,-0.22352402,0.0,0.0,0,-0.905993
-0.066766836,0.9651431,-0.0019824416,-0.2907148,-0.4422233,-0.2235221,0.0,0.0,0,-0.896463
-0.066888906,0.95857805,-0.0019890745,-0.29504427,-0.45339933,-0.2235202,0.0,0.0,0,-0.886935
-0.067010306,0.9519173,-0.0019958653,-0.2993737,-0.46457526,-0.22351833,0.0,0.0,0,-0.877383
-0.067131236,0.9451607,-0.0020028155,-0.303703,-0.47575104,-0.22351637,0.0,0.0,0,-0.867880
-0.06725168,0.93830854,-0.0020099208,-0.30803236,-0.48692676,-0.22351447,0.0,0.0,0,-0.858346
-0.06737175,0.93136054,-0.0020171828,-0.31236163,-0.49810243,-0.22351253,0.0,0.0,0,-0.848822
-0.067491055,0.9243168,-0.0020245998,-0.31669083,-0.509278,-0.2235106,0.0,0.0,0,-0.839303
-0.06760998,0.91717744,-0.002032169,-0.32102,-0.52045345,-0.22350872,0.0,0.0,0,-0.829767
-0.06772824,0.9099422,-0.002039894,-0.32534912,-0.5316288,-0.22350678,0.0,0.0,0,-0.820246
-0.067846015,0.90261126,-0.0020477711,-0.32967812,-0.542804,-0.22350486,0.0,0.0,0,-0.810707
-0.06796322,0.89518434,-0.0020557977,-0.33400708,-0.55397916,-0.2235029,0.0,0.0,0,-0.801208
-0.068079755,0.8876619,-0.0020639766,-0.33833596,-0.5651542,-0.22350097,0.0,0.0,0,-0.791684
-0.06819572,0.8800434,-0.0020723026,-0.3426648,-0.57632923,-0.22349903,0.0,0.0,2,0.748045
-0.06807661,0.87275976,0.02122011,-0.3277868,-0.5873178,-0.21977234,0.0,0.0,2,3.290967
-0.06740103,0.8666119,0.07676913,-0.2773644,-0.5982704,-0.21905188,0.0,0.0,2,0.294757
-0.06620817,0.86117405,0.12795514,-0.24565473,-0.6086474,-0.20753996,0.0,0.0,0,-0.860976
-0.06501474,0.8556401,0.12794746,-0.24998216,-0.61902434,-0.20753841,0.0,0.0,0,-0.852846
-0.06382074,0.8500102,0.12793966,-0.25430954,-0.6294012,-0.20753689,0.0,0.0,0,-0.844655
-0.06262617,0.8442843,0.12793174,-0.25863686,-0.63977796,-0.20753536,0.0,0.0,0,-0.836389
-0.061431028,0.8384621,0.12792371,-0.26296413,-0.65015465,-0.20753387,0.0,0.0,2,-0.035690
-0.05961647,0.8338031,0.18985558,-0.21136816,-0.6606027,-0.2089605,0.0,0.0,2,-1.032625
-0.05740719,0.8301451,0.22976868,-0.16719428,-0.67168725,-0.22169074,0.0,0.0,2,-3.386191
-0.054672144,0.8275992,0.28259495,-0.11801223,-0.6831886,-0.23002729,0.0,0.0,0,-1.037327
-0.05193634,0.82495755,0.28258452,-0.122340865,-0.69468987,-0.23002525,0.0,0.0,0,-1.033656
-0.04919977,0.82221997,0.28257394,-0.12666942,-0.706191,-0.23002318,0.0,0.0,0,-1.029924
-0.04646244,0.81938666,0.2825632,-0.13099788,-0.7176921,-0.23002109,0.0,0.0,0,-1.026061
-0.043724347,0.8164573,0.28255233,-0.13532628,-0.72919303,-0.230019,0.0,0.0,0,-1.022145
-0.040985394,0.81343204,0.28254133,-0.13965459,-0.74069387,-0.23001692,0.0,0.0,0,-1.018148
-0.038245775,0.81031096,0.28253016,-0.14398281,-0.7521946,-0.23001483,0.0,0.0,0,-1.014075
-0.035505295,0.80709404,0.28251886,-0.14831094,-0.76369524,-0.2300127,0.0,0.0,0,-1.009902
-0.032764055,0.8037811,0.28250742,-0.15263899,-0.7751958,-0.2300106,0.0,0.0,0,-1.005651
-0.030021857,0.8003722,0.28249586,-0.15696695,-0.7866962,-0.23000851,0.0,0.0,0,-1.001337
-0.0272789,0.79686743,0.28248417,-0.16129483,-0.7981965,-0.23000641,0.0,0.0,0,-0.996920
-0.02453518,0.79326653,0.28247234,-0.16562258,-0.80969673,-0.23000431,0.0,0.0,1,0.173447
-0.021849442,0.78966683,0.2747717,-0.16436282,-0.818607,-0.17820449,0.0,0.0,1,0.030999
-0.019198513,0.7860445,0.26999125,-0.16449973,-0.82570887,-0.14203748,0.0,0.0,1,0.247638
-0.01659317,0.7823828,0.2642161,-0.16541919,-0.83108306,-0.10748373,0.0,0.0,1,0.684135
-0.014038181,0.7787214,0.25748616,-0.1641877,-0.83399975,-0.058334548,0.0,0.0,1,1.002876
-0.011543751,0.77505255,0.24972174,-0.1632627,-0.8344051,-0.0081078205,0.0,0.0,1,1.075719
-0.009095383,0.7713747,0.24358726,-0.16254108,-0.8325746,0.03661063,0.0,0.0,1,1.495996
-0.0067108152,0.76768756,0.23548,-0.16170105,-0.8282108,0.08727697,0.0,0.0,1,1.458293
-0.004368496,0.76398313,0.22983763,-0.16146854,-0.821816,0.12789507,0.0,0.0,1,1.853798
-0.002080345,0.7602724,0.22272214,-0.16058058,-0.8130106,0.17610963,0.0,0.0,1,2.260016
0.00014781952,0.7565738,0.21468905,-0.15871243,-0.8014015,0.23218127,0.0,0.0,1,2.084718
0.0023360252,0.7528469,0.20931049,-0.15918317,-0.7879985,0.26805955,0.0,0.0,0,1.458428
0.0045253756,0.7490243,0.20929435,-0.1635137,-0.7745957,0.2680562,0.0,0.0,0,1.462871
0.0067157745,0.7451061,0.20927846,-0.16784438,-0.76119304,0.26805288,0.0,0.0,0,1.467426
0.008907413,0.7410925,0.20926277,-0.1721752,-0.7477906,0.26804954,0.0,0.0,0,1.472090
0.011100006,0.7369835,0.20924732,-0.17650615,-0.7343883,0.26804623,0.0,0.0,1,2.438545
0.013240719,0.7328519,0.20236082,-0.17667852,-0.71891224,0.3095205,0.0,0.0,1,2.659986
0.015324402,0.7286913,0.19489938,-0.177188,-0.7013639,0.3509662,0.0,0.0,1,3.072252
0.017344857,0.7245276,0.18637206,-0.1763797,-0.68126047,0.40206972,0.0,0.0,0,2.132351
0.0193676,0.720271,0.18633965,-0.18072577,-0.66115755,0.4020585,0.0,0.0,0,2.137031
0.021392535,0.71592164,0.18630806,-0.18507226,-0.64105517,0.4020473,0.0,0.0,0,2.141849
0.023419667,0.71147937,0.18627727,-0.1894192,-0.6209534,0.4020361,0.0,0.0,1,3.363632
0.025375748,0.70702904,0.17678498,-0.18900827,-0.59826505,0.4537662,0.0,0.0,1,3.479204
0.027267838,0.70256156,0.16811672,-0.18920234,-0.57326376,0.50002474,0.0,0.0,1,3.718369
0.029094601,0.6980802,0.15920347,-0.18934457,-0.5459061,0.5471529,0.0,0.0,0,2.851177
0.030924702,0.69351023,0.15915348,-0.1937177,-0.5185499,0.5471246,0.0,0.0,0,2.855924
0.032758046,0.68885165,0.15910569,-0.19809172,-0.49119505,0.54709643,0.0,0.0,0,2.860740
0.034594726,0.6841046,0.15906015,-0.20246658,-0.46384165,0.54706824,0.0,0.0,0,2.865651
0.03643427,0.6792694,0.15901688,-0.20684226,-0.43648967,0.54704005,0.0,0.0,0,2.870680
0.038276576,0.6743457,0.1589759,-0.2112187,-0.4091391,0.54701185,0.0,0.0,0,2.875740
0.040121555,0.6693342,0.15893726,-0.21559589,-0.38178995,0.54698366,0.0,0.0,0,2.880909
0.041969012,0.6642347,0.15890098,-0.21997373,-0.3544422,0.54695547,0.0,0.0,0,2.886164
0.04381857,0.65904725,0.15886709,-0.2243522,-0.32709584,0.54692733,0.0,0.0,0,2.891445
0.045670412,0.65377223,0.1588356,-0.22873129,-0.2997509,0.5468992,0.0,0.0,0,2.896815
0.047524072,0.64840955,0.15880655,-0.23311092,-0.27240738,0.546871,0.0,0.0,0,2.902257
0.04937954,0.6429591,0.15877995,-0.23749106,-0.24506527,0.5468428,0.0,0.0,0,2.907747
0.05123663,0.6374212,0.15875584,-0.24187164,-0.21772455,0.5468147,0.0,0.0,0,2.913292
0.05309515,0.6317957,0.15873422,-0.24625267,-0.19038524,0.5467865,0.0,0.0,0,2.918865
0.054954816,0.62608296,0.1587151,-0.25063404,-0.16304734,0.54675835,0.0,0.0,0,2.924527
0.05681572,0.62028253,0.15869853,-0.25501573,-0.13571085,0.54673016,0.0,0.0,0,2.930178
0.058677386,0.61439496,0.15868448,-0.2593977,-0.108375765,0.546702,0.0,0.0,0,2.935886
0.060539722,0.6084201,0.15867297,-0.2637799,-0.081042096,0.5466739,0.0,0.0,0,2.941626
0.06240263,0.6023579,0.15866403,-0.26816225,-0.05370984,0.5466457,0.0,0.0,0,2.947409
0.064265825,0.5962084,0.15865764,-0.27254477,-0.026378967,0.5466176,0.0,0.0,0,2.763092
0.06612921,0.5899717,0.15865383,-0.27692735,0.00095048174,0.5465895,0.0,0.0,0,-2.506608
0.06799259,0.58364767,0.15865257,-0.28131002,0.028278543,0.5465613,0.0,0.0,0,-2.500494
0.06985569,0.5772364,0.15865389,-0.28569266,0.055605203,0.5465332,0.0,0.0,0,-2.494374
0.07171831,0.5707379,0.15865777,-0.29007527,0.082930446,0.5465051,0.0,0.0,0,-2.488240
0.07358046,0.56415206,0.15866421,-0.29445776,0.11025429,0.54647696,0.0,0.0,0,-2.482115
0.07544184,0.5574789,0.15867321,-0.29884008,0.13757674,0.5464488,0.0,0.0,0,-2.475983
0.07730236,0.55071837,0.15868476,-0.30322224,0.16489778,0.54642075,0.0,0.0,2,0.816950
0.07900715,0.5446117,0.14356288,-0.27461898,0.19188716,0.53978765,0.0,0.0,2,1.803943
0.08045874,0.53930175,0.11900057,-0.23959355,0.21825162,0.52728903,0.0,0.0,2,2.238946
0.08167801,0.53493464,0.09627743,-0.19809985,0.2442606,0.52017957,0.0,0.0,0,-2.574198
0.08289585,0.530479,0.0962969,-0.20247515,0.27026835,0.52015525,0.0,0.0,0,-2.567576
0.08411207,0.5259349,0.09631851,-0.20685007,0.2962749,0.520131,0.0,0.0,0,-2.560888
0.085326575,0.52130204,0.09634227,-0.21122459,0.32228023,0.5201067,0.0,0.0,0,-2.554139
0.086539075,0.5165806,0.09636814,-0.21559867,0.34828436,0.52008253,0.0,0.0,0,-2.547340
0.08774958,0.5117704,0.09639611,-0.21997231,0.37428725,0.5200583,0.0,0.0,0,-2.540483
0.08895798,0.50687134,0.09642616,-0.22434545,0.4002889,0.5200341,0.0,0.0,0,-2.533599
0.0901639,0.50188345,0.09645827,-0.22871804,0.4262894,0.5200099,0.0,0.0,0,-2.526660
0.09136734,0.4968065,0.09649242,-0.23309006,0.4522887,0.5199857,0.0,0.0,0,-2.519694
0.0925683,0.49164042,0.096528575,-0.23746143,0.47828674,0.5199615,0.0,0.0,0,-2.512694
0.09376631,0.48638508,0.09656672,-0.24183218,0.5042836,0.5199373,0.0,0.0,0,-2.505675
0.09496155,0.48104033,0.09660685,-0.24620223,0.5302793,0.5199131,0.0,0.0,0,-2.498647
0.09615354,0.47560623,0.09664892,-0.25057158,0.5562737,0.5198888,0.0,0.0,2,2.243992
0.09701338,0.4710555,0.063532546,-0.21180396,0.58255833,0.52569294,0.0,0.0,2,2.852059
0.0972662,0.46751383,0.0036117758,-0.16716848,0.6083745,0.5163225,0.0,0.0,2,-0.257414
0.09711456,0.4646013,-0.036246847,-0.13947058,0.63393456,0.5112012,0.0,0.0,2,-1.912333
0.096452236,0.46243525,-0.08662618,-0.10650473,0.65913165,0.50394136,0.0,0.0,0,-2.623271
0.095786475,0.4601786,-0.08657802,-0.11086734,0.6843276,0.5039193,0.0,0.0,0,-2.619340
0.09511719,0.45783135,-0.08652827,-0.115229115,0.7095225,0.5038973,0.0,0.0,0,-2.615009
0.09444408,0.45539325,-0.08647697,-0.11959004,0.73471624,0.50387526,0.0,0.0,0,-2.610336
0.09376726,0.45286417,-0.08642413,-0.12395009,0.7599089,0.5038532,0.0,0.0,0,-2.605340
0.09308644,0.45024413,-0.08636978,-0.12830923,0.78510046,0.50383127,0.0,0.0,2,-3.851343
0.09181909,0.4487021,-0.14502606,-0.0810068,0.8109338,0.51666725,0.0,0.0,0,-2.609515
0.09054737,0.44706905,-0.14496586,-0.085365996,0.836766,0.5166436,0.0,0.0,0,-2.608892
0.08927135,0.4453447,-0.14490417,-0.08972414,0.862597,0.5166198,0.0,0.0,0,-2.607928
0.08799086,0.443529,-0.14484105,-0.0940812,0.8884268,0.5165961,0.0,0.0,0,-2.606598
0.086705685,0.44162166,-0.14477648,-0.098437175,0.9142554,0.5165723,0.0,0.0,0,-2.604940
0.08541594,0.43962243,-0.14471056,-0.102792025,0.9400828,0.5165485,0.0,0.0,0,-2.602951
0.084121324,0.43753123,-0.1446433,-0.10714571,0.965909,0.5165248,0.0,0.0,0,-2.600648
0.082821846,0.4353479,-0.14457479,-0.11149824,0.991734,0.51650107,0.0,0.0,0,-2.598026
0.08151741,0.43307227,-0.14450501,-0.11584957,1.0175579,0.5164773,0.0,0.0,0,-2.595086
0.08020792,0.4307039,-0.14443405,-0.12019969,1.0433805,0.51645356,0.0,0.0,3,-1.738674
0.07893238,0.42832354,-0.13944782,-0.1197465,1.0671407,0.47520417,0.0,0.0,3,-1.341614
0.077693366,0.42595884,-0.13404582,-0.11765504,1.0882566,0.42231688,0.0,0.0,3,-1.186193
0.076491356,0.42359328,-0.12889107,-0.116417535,1.1070336,0.3755402,0.0,0.0,3,-0.899740
0.075325206,0.42123806,-0.123857856,-0.11451152,1.1232567,0.32446083,0.0,0.0,0,-1.655228
0.074156955,0.41878718,-0.12382805,-0.11884127,1.1394794,0.32445493,0.0,0.0,0,-1.651581
0.0729866,0.4162405,-0.123798,-0.1231707,1.1557019,0.32444903,0.0,0.0,0,-1.647623
0.07181406,0.41359806,-0.12376773,-0.1274998,1.171924,0.32444316,0.0,0.0,0,-1.643388
0.07063942,0.4108598,-0.12373724,-0.13182859,1.1881459,0.32443732,0.0,0.0,0,-1.638864
0.06946249,0.4080256,-0.12370656,-0.13615704,1.2043674,0.32443145,0.0,0.0,0,-1.634101
0.06828346,0.40509546,-0.12367567,-0.14048514,1.2205887,0.32442558,0.0,0.0,0,-1.629069
0.06710224,0.4020693,-0.123644575,-0.14481291,1.2368096,0.32441968,0.0,0.0,3,-0.942700
0.06593609,0.39903045,-0.121276,-0.14420803,1.2511182,0.28617153,0.0,0.0,3,-0.468774
0.06479893,0.3960047,-0.11739365,-0.14201328,1.262848,0.23459569,0.0,0.0,3,-0.191196
0.06368341,0.39300364,-0.11425841,-0.13915107,1.271804,0.17911981,0.0,0.0,3,-0.192899
0.06258488,0.38999343,-0.11190766,-0.13827233,1.2787461,0.13884403,0.0,0.0,0,-0.707623
0.061485864,0.3868862,-0.11190184,-0.14259352,1.2856883,0.13884357,0.0,0.0,0,-0.702066
0.060386468,0.383682,-0.111896,-0.14691468,1.2926304,0.13884312,0.0,0.0,0,-0.696281
0.059286594,0.38038075,-0.11189016,-0.1512358,1.2995726,0.13884261,0.0,0.0,0,-0.690292
0.05818634,0.37698242,-0.11188431,-0.15555692,1.3065147,0.13884215,0.0,0.0,0,-0.684104
0.057085704,0.37348711,-0.11187843,-0.159878,1.3134568,0.1388417,0.0,0.0,0,-0.677738
0.055984594,0.36989474,-0.111872554,-0.16419904,1.3203988,0.13884123,0.0,0.0,0,-0.671206
0.054883193,0.3662053,-0.11186667,-0.16852005,1.3273408,0.13884075,0.0,0.0,0,-0.664510
0.05378132,0.3624188,-0.11186077,-0.17284104,1.3342829,0.13884027,0.0,0.0,0,-0.657671
0.052678965,0.35853532,-0.111854866,-0.17716199,1.3412249,0.1388398,0.0,0.0,3,0.071913
0.051583387,0.3546512,-0.11065446,-0.17578015,1.3460166,0.09583442,0.0,0.0,3,0.193512
0.050492477,0.35075557,-0.109735966,-0.17504244,1.3489065,0.05779711,0.0,0.0,3,0.594885
0.049423315,0.34686255,-0.10703889,-0.17339946,1.3494827,0.011522393,0.0,0.0,3,0.711250
0.04836159,0.342969,-0.10581644,-0.17200643,1.3479015,-0.03162267,0.0,0.0,0,0.198899
0.047299862,0.33897817,-0.10581615,-0.17632648,1.3463203,-0.031622656,0.0,0.0,0,0.206038
0.046238136,0.33489025,-0.10581583,-0.18064652,1.3447391,-0.031622663,0.0,0.0,0,0.213326
0.045176316,0.33070508,-0.10581553,-0.18496658,1.3431579,-0.031622667,0.0,0.0,3,1.270839
0.044127654,0.32655716,-0.103797436,-0.18132943,1.33856,-0.091957286,0.0,0.0,3,1.332038
0.043097306,0.32241055,-0.101416804,-0.17979036,1.3317008,-0.13718377,0.0,0.0,3,1.598619
0.042087935,0.31826836,-0.09868323,-0.17806342,1.3224951,-0.18411484,0.0,0.0,3,1.661900
0.041095924,0.3141108,-0.096392,-0.17752676,1.3114,-0.22190006,0.0,0.0,3,2.039903
0.040115546,0.30996716,-0.09443424,-0.17530824,1.2978193,-0.27161577,0.0,0.0,3,2.305608
0.0391531,0.30583477,-0.091741756,-0.17324468,1.2817733,-0.32092148,0.0,0.0,3,2.667984
0.038212396,0.30172643,-0.08849417,-0.17045222,1.262969,-0.37608618,0.0,0.0,3,2.964402
0.037288666,0.29764855,-0.08551441,-0.1673456,1.2413126,-0.43312803,0.0,0.0,3,3.201050
0.03639231,0.29358703,-0.08142291,-0.16505149,1.2170296,-0.48566383,0.0,0.0,3,3.380601
0.035518836,0.28953505,-0.07767497,-0.16324069,1.190316,-0.5342723,0.0,0.0,0,2.703954
0.034639455,0.28538933,-0.0775909,-0.16758224,1.1636037,-0.534246,0.0,0.0,0,2.710983
0.033754252,0.2811503,-0.07750772,-0.17192528,1.1368927,-0.53421974,0.0,0.0,0,2.718114
0.03286333,0.27681807,-0.0774255,-0.17626978,1.110183,-0.5341935,0.0,0.0,0,2.725333
0.031966783,0.27239287,-0.0773443,-0.18061575,1.0834746,-0.53416723,0.0,0.0,0,2.732636
0.03106451,0.26787487,-0.07726417,-0.18496317,1.0567676,-0.534141,0.0,0.0,0,2.739994
0.0301569,0.26326448,-0.077185154,-0.18931197,1.0300618,-0.5341148,0.0,0.0,0,2.747441
0.029243756,0.25856167,-0.07710733,-0.19366217,1.0033574,-0.5340885,0.0,0.0,0,2.754931
0.028325368,0.2537668,-0.077030756,-0.19801375,0.9766543,-0.53406227,0.0,0.0,0,2.762484
0.027401734,0.24888004,-0.07695546,-0.20236668,0.9499525,-0.53403604,0.0,0.0,0,2.770080
0.026472855,0.24390164,-0.07688152,-0.20672093,0.923252,-0.53400975,0.0,0.0,0,2.777722
0.025539016,0.23883177,-0.07680898,-0.21107651,0.8965528,-0.5339835,0.0,0.0,0,2.785394
0.024600219,0.2336707,-0.0767379,-0.21543336,0.869855,-0.53395736,0.0,0.0,0,2.793126
0.02365675,0.2284185,-0.07666832,-0.21979144,0.8431584,-0.53393114,0.0,0.0,0,2.800892
0.022708511,0.22307533,-0.07660029,-0.22415075,0.8164632,-0.5339049,0.0,0.0,0,2.808655
0.0217556,0.21764167,-0.07653386,-0.22851127,0.78976923,-0.5338787,0.0,0.0,0,2.816471
0.020798301,0.21211746,-0.07646908,-0.23287295,0.7630766,-0.53385246,0.0,0.0,0,2.824315
0.019836616,0.20650285,-0.07640598,-0.23723577,0.7363853,-0.5338263,0.0,0.0,0,2.832176
0.01887083,0.20079805,-0.076344624,-0.2415997,0.7096953,-0.5338001,0.0,0.0,0,2.840051
0.017900849,0.19500326,-0.07628506,-0.24596469,0.6830066,-0.53377396,0.0,0.0,0,2.847941
0.016926765,0.1891187,-0.076227315,-0.25033072,0.6563192,-0.5337478,0.0,0.0,0,2.855862
0.015948867,0.18314432,-0.076171435,-0.25469777,0.6296331,-0.53372157,0.0,0.0,0,2.863779
0.014967347,0.17708045,-0.076117456,-0.2590658,0.60294837,-0.53369534,0.0,0.0,0,2.871695
0.013982201,0.17092732,-0.07606543,-0.26343477,0.5762649,-0.5336691,0.0,0.0,0,2.879636
0.012993622,0.16468492,-0.07601537,-0.26780462,0.5495828,-0.53364295,0.0,0.0,0,2.887583
0.0120018,0.15835334,-0.07596732,-0.27217534,0.52290195,-0.53361684,0.0,0.0,0,2.895529
0.011006832,0.15193278,-0.07592133,-0.2765469,0.49622238,-0.5335907,0.0,0.0,0,2.903456
0.010008907,0.14542337,-0.07587741,-0.28091922,0.46954417,-0.5335645,0.0,0.0,0,2.911389
0.009008122,0.13882521,-0.07583562,-0.2852923,0.44286728,-0.53353834,0.0,0.0,0,2.919298
0.00800457,0.13213843,-0.075795956,-0.28966615,0.4161917,-0.5335122,0.0,0.0,0,2.927195
0.0069984435,0.1253631,-0.075758465,-0.29404065,0.38951743,-0.533486,0.0,0.0,2,4.584343
0.005690479,0.119173706,-0.10520562,-0.2683253,0.36235318,-0.5432856,0.0,0.0,2,6.620032
0.0040563582,0.114312254,-0.13769644,-0.20980331,0.3353374,-0.5403153,0.0,0.0,0,2.835487
0.0024202347,0.10936275,-0.13766485,-0.21418113,0.308323,-0.5402881,0.0,0.0,0,2.839581
0.0007821083,0.104325354,-0.13763563,-0.21855952,0.28130996,-0.5402609,0.0,0.0,0,2.843449
-0.0008577347,0.099200115,-0.1376088,-0.22293839,0.25429827,-0.54023385,0.0,0.0,0,2.847000
-0.002499199,0.09398705,-0.13758436,-0.22731772,0.22728795,-0.5402067,0.0,0.0,0,2.850123
-0.0041420935,0.08868614,-0.13756235,-0.23169747,0.20027897,-0.5401795,0.0,0.0,0,2.852646
-0.005786228,0.08329762,-0.13754275,-0.23607758,0.17327137,-0.5401524,0.0,0.0,0,2.854395
-0.0074316026,0.077821404,-0.13752559,-0.24045804,0.14626513,-0.5401252,0.0,0.0,0,2.855075
-0.009077835,0.072257645,-0.1375109,-0.24483876,0.11926026,-0.540098,0.0,0.0,0,2.854304
-0.010724926,0.06660627,-0.13749865,-0.24921975,0.092256725,-0.5400709,0.0,0.0,0,2.851501
-0.012372494,0.060867414,-0.1374889,-0.25360093,0.06525457,-0.5400438,0.0,0.0,0,2.845863
-0.014020443,0.05504101,-0.1374816,-0.25798225,0.03825374,-0.5400167,0.0,0.0,0,2.836119
-0.015668679,0.049127135,-0.1374768,-0.2623637,0.011254271,-0.5399896,0.0,0.0,0,-0.328357
-0.017316818,0.04312571,-0.13747448,-0.26674515,-0.01574384,-0.5399624,0.0,0.0,0,-2.603554
-0.018964957,0.03703674,-0.13747467,-0.27112663,-0.042740602,-0.5399353,0.0,0.0,0,-2.641212
-0.020612812,0.030860363,-0.13747734,-0.27550808,-0.06973599,-0.5399083,0.0,0.0,0,-2.698524
-0.022260094,0.024596367,-0.1374825,-0.2798895,-0.09673004,-0.5398811,0.0,0.0,0,-2.783405
-0.023906803,0.018244753,-0.13749014,-0.28427073,-0.12372274,-0.53985405,0.0,0.0,0,7.097979
-0.02555275,0.011805663,-0.13750026,-0.28865188,-0.15071408,-0.539827,1.0,0.0,0,1.359214
-0.027153302,0.0060500717,-0.14931896,-0.25738388,-0.15961817,-0.17565285,1.0,0.0,0,2.842686
-0.028614616,0.0008472657,-0.15588662,-0.23021214,-0.14991875,0.1939224,1.0,0.0,0,4.365850
-0.029956628,-0.0038066173,-0.16249834,-0.20423913,-0.12171874,0.564001,1.0,0.0,0,5.426558
-0.031194782,-0.008000663,-0.16824386,-0.18339325,-0.07756742,0.8831069,1.0,0.0,0,15.472868
-0.03237648,-0.011969223,-0.17152748,-0.17449181,-0.024719147,1.0570848,1.0,1.0,0,3.602847
-0.03359642,-0.015243235,-0.1625183,-0.14583807,0.012637919,0.7437991,1.0,1.0,0,-0.190372
-0.034915067,-0.017879881,-0.15532303,-0.117556386,0.035772998,0.46267176,1.0,1.0,0,0.913503
-0.036257267,-0.0197948,-0.14750108,-0.08547548,0.048872493,0.2619712,1.0,1.0,0,1.414126
-0.037574768,-0.020901194,-0.1389776,-0.049424395,0.056016583,0.14286815,1.0,1.0,0,1.212659
-0.038837813,-0.02114481,-0.1300272,-0.01097108,0.059681125,0.073278464,1.0,1.0,0,0.483902
-0.040040493,-0.02051492,-0.12098875,0.027966384,0.060383216,0.014029709,1.0,1.0,0,-0.417938
-0.04118023,-0.019108405,-0.11286817,0.062557645,0.059288647,-0.021893714,1.0,1.0,0,-0.806169
-0.042261697,-0.01712382,-0.10661755,0.08826912,0.057779033,-0.030186761,1.0,1.0,0,-0.568983
-0.043301485,-0.014819338,-0.10276534,0.10247557,0.056588516,-0.023800964,1.0,1.0,0,-0.006254
-0.044323444,-0.012466862,-0.101413764,0.10459355,0.055815708,-0.015445669,1.0,1.0,0,0.448385
-0.04534378,-0.010248675,-0.101370394,0.098611645,0.05515205,-0.013274098,1.0,1.0,0,-19.681217
-0.046364404,-0.008131661,-0.10137403,0.09411563,0.0544745,-0.013552254,0.0,0.0,0,0.287422
-0.047385026,-0.0061117434,-0.101372205,0.08979809,0.053796798,-0.013555196,0.0,0.0,0,0.269603
-0.04840555,-0.0041891,-0.101370215,0.085476905,0.053119197,-0.013552934,0.0,0.0,0,0.252692
-0.04942608,-0.0023636604,-0.101368226,0.08115507,0.052441705,-0.013551058,0.0,0.0,0,0.289081
-0.05045271,-0.0006466889,-0.101574145,0.07634759,0.051361125,-0.021609833,0.0,0.0,0,0.259488
-0.051479436,0.000973115,-0.10157691,0.072026595,0.050280526,-0.02161017,0.0,0.0,0,0.245007
-0.05250616,0.0024956441,-0.10157963,0.06770584,0.049199726,-0.021614194,0.0,0.0,0,0.231006
-0.053532887,0.003921006,-0.101582445,0.063385144,0.048118785,-0.021617023,0.0,0.0,1,-0.931047
-0.054641534,0.0052548144,-0.111837044,0.059247922,0.049086142,0.01935086,0.0,0.0,1,-1.237658
-0.055837058,0.0064755417,-0.122745335,0.05414718,0.052248787,0.063258335,0.0,0.0,1,-1.301363
-0.057102013,0.0076007103,-0.131448,0.049830087,0.057149928,0.09803021,0.0,0.0,1,-1.764961
-0.058454417,0.008618913,-0.14241199,0.044965263,0.06425271,0.14206468,0.0,0.0,0,-0.734668
-0.059807014,0.00954052,-0.1424263,0.040637966,0.071354255,0.1420404,0.0,0.0,0,-0.745461
-0.061159708,0.010365495,-0.14244023,0.03630967,0.07845533,0.1420307,0.0,0.0,0,-0.756245
-0.06251268,0.011093912,-0.14245401,0.031981505,0.08555559,0.1420148,0.0,0.0,0,-0.767023
-0.06386576,0.011725626,-0.14246787,0.027653256,0.092655085,0.1419987,0.0,0.0,0,-0.777833
-0.06521912,0.012260709,-0.14248158,0.023324866,0.09975376,0.1419827,0.0,0.0,0,-0.788701
-0.066572666,0.012699161,-0.14249514,0.018996332,0.10685163,0.14196672,0.0,0.0,0,-0.799657
-0.06792641,0.013040981,-0.14250855,0.014667649,0.113948725,0.14195082,0.0,0.0,0,-0.810701
-0.069280244,0.013286171,-0.14252183,0.010338823,0.12104501,0.14193495,0.0,0.0,0,-0.821870
-0.070634365,0.01343473,-0.14253494,0.0060098455,0.12814051,0.1419191,0.0,0.0,0,9.707455
-0.071997166,0.013628278,-0.14014956,0.008246622,0.13196059,0.07634936,0.0,1.0,0,0.102013
-0.07338686,0.013905368,-0.13819627,0.012380266,0.13116573,-0.015928762,0.0,1.0,0,0.465494
-0.07479944,0.014240179,-0.13651703,0.015286843,0.12643999,-0.09453073,0.0,1.0,0,0.366744
-0.076202966,0.014466057,-0.13610497,0.010392535,0.12222063,-0.08438732,0.0,1.0,0,0.307742
-0.077606484,0.014595018,-0.1361047,0.0060710507,0.11800128,-0.0843871,0.0,1.0,0,-9.704186
-0.07901001,0.014626917,-0.13610443,0.0017495651,0.11378193,-0.084386885,0.0,0.0,3,1.494515
-0.08033228,0.014586721,-0.12587832,-0.0013147783,0.10747394,-0.12615962,0.0,0.0,3,1.428589
-0.081590936,0.014456329,-0.11788281,-0.0052413,0.0995581,-0.15831687,0.0,0.0,3,1.962608
-0.082761094,0.014246902,-0.10677005,-0.008659995,0.08939394,-0.2032835,0.0,0.0,3,1.952717
-0.08385754,0.01394957,-0.09749034,-0.012530467,0.077363685,-0.24060515,0.0,0.0,0,1.036701
-0.08495398,0.013556967,-0.09748882,-0.016862579,0.06533354,-0.24060276,0.0,0.0,0,1.019324
-0.08605041,0.01306909,-0.097487524,-0.021194702,0.053303514,-0.24060032,0.0,0.0,0,1.002189
-0.08714704,0.012485943,-0.09748645,-0.025526833,0.041273613,-0.24059792,0.0,0.0,3,2.033434
-0.0881712,0.011822114,-0.08838553,-0.029176945,0.027412323,-0.2772259,0.0,0.0,3,2.014268
-0.0891325,0.011061439,-0.0804884,-0.03359739,0.011971378,-0.3088193,0.0,0.0,3,1.190800
-0.09002342,0.010212502,-0.07165786,-0.037676744,-0.0052386913,-0.3442015,0.0,0.0,0,-2.010562
-0.09091435,0.009270367,-0.07165773,-0.042021625,-0.022448411,-0.3441945,0.0,0.0,0,-2.027814
-0.091805264,0.008234999,-0.07165825,-0.0463665,-0.03965779,-0.34418747,0.0,0.0,3,-1.542124
-0.09262314,0.007100532,-0.062518194,-0.05104143,-0.05870097,-0.3808636,0.0,0.0,3,11.844980
-0.09315471,0.006415889,-0.05155275,-0.030491443,-0.060283475,-0.031652104,1.0,0.0,3,3.198257
-0.09340467,0.0061067557,-0.03830097,-0.0132587245,-0.047136288,0.26294917,1.0,0.0,0,0.977814
-0.09366684,0.00568454,-0.038804643,-0.018416822,-0.03470079,0.24871013,1.0,0.0,0,-8.982570
-0.09392901,0.00516716,-0.038805477,-0.022749843,-0.022265421,0.24870749,0.0,0.0,0,0.986534
-0.094191074,0.004554579,-0.038806077,-0.027082868,-0.009830191,0.24870482,0.0,0.0,0,0.438825
-0.09445314,0.0038468696,-0.03880643,-0.0314159,0.0026049241,0.24870217,0.0,0.0,3,-0.655900
-0.0946311,0.0030390597,-0.028246993,-0.035949007,0.01292545,0.20641056,0.0,0.0,3,-0.670170
-0.09472084,0.0021310067,-0.017183762,-0.040451214,0.021031426,0.16211972,0.0,0.0,3,12.190058
-0.09480534,0.001543889,-0.0037597802,-0.026034083,0.01640335,-0.09256157,0.0,1.0,3,0.211623
-0.094818115,0.00087076187,0.0052387803,-0.02986061,0.009970412,-0.12865898,0.0,1.0,3,0.106369
-0.09474125,0.00010668993,0.0164905,-0.03392528,0.0012833705,-0.17374085,0.0,1.0,0,-10.998014
-0.09466419,-0.0007535839,0.016490538,-0.038251642,-0.00740362,-0.17373997,0.0,0.0,0,12.126273
-0.094520375,-0.0012487196,0.010541098,-0.022013115,-0.0035274934,0.07762353,1.0,0.0,0,11.900056
-0.09446649,-0.0012493277,0.0054552276,-4.618936e-05,-0.003532186,-1.1475958e-05,1.0,1.0,0,0.100121
-0.09442215,-0.0012454652,0.0044944827,0.00015643782,-0.0035335845,3.8402653e-05,1.0,1.0,3,-0.723930
-0.09430723,-0.0012451076,0.011548677,3.870193e-06,-0.0035363268,9.4050654e-07,1.0,1.0,3,-0.696760
-0.09412365,-0.0012449645,0.018397521,-2.281822e-06,-0.0035386495,-5.436849e-07,1.0,1.0,3,-0.998748
-0.093840316,-0.0012446785,0.028366435,1.643803e-06,-0.0035405331,3.9932212e-07,1.0,1.0,0,0.118822
-0.093566135,-0.0012446069,0.027450776,-1.8129736e-06,-0.0035421345,-4.2871957e-07,1.0,1.0,0,0.118053
-0.09330101,-0.001244464,0.026534045,-3.7385853e-08,-0.0035434326,-7.591957e-09,1.0,1.0,0,0.117127
-0.09304514,-0.0012443924,0.025617545,1.2444482e-08,-0.00354451,1.0640555e-08,1.0,1.0,0,0.116231
-0.09279833,-0.0012443209,0.024701139,-2.7736838e-10,-0.0035453942,2.3103782e-08,1.0,1.0,0,0.246893
-0.09256105,-0.0011504078,0.022913259,0.0041702166,-0.0027264145,0.01640306,1.0,1.0,0,0.085247
-0.092332646,-0.0011386061,0.022750156,0.0005229102,-0.0026359707,0.0018194834,1.0,1.0,0,0.101422
-0.092113115,-0.0011390352,0.021960754,-2.1103195e-05,-0.0026366683,-4.9923083e-06,1.0,1.0,0,0.112993
-0.09190283,-0.0011390352,0.0210407,-3.946667e-06,-0.0026370762,-9.384472e-07,1.0,1.0,0,0.111813
-0.0917017,-0.0011390352,0.020123396,8.8649024e-08,-0.0026373658,1.3038516e-08,1.0,1.0,0,0.110825
-0.091509625,-0.0011390352,0.019206967,2.8432556e-08,-0.0026376056,9.150244e-09,1.0,1.0,0,0.109908
-0.09132671,-0.0011390352,0.018290568,-2.6616687e-09,-0.0026378203,9.965151e-09,1.0,1.0,0,0.108999
-0.09115295,-0.0011390352,0.017374162,-2.561977e-09,-0.0026379866,6.113819e-09,1.0,1.0,0,0.108085
-0.09098835,-0.0011390352,0.01645775,-3.8431263e-09,-0.0026381356,3.7579433e-09,1.0,1.0,0,0.107173
-0.090832904,-0.0011390352,0.015541342,-4.018631e-09,-0.0026382522,4.0959156e-09,1.0,1.0,0,0.106260
-0.090686604,-0.0011390352,0.014624931,-3.5309948e-09,-0.0026383442,4.0914454e-09,1.0,1.0,0,0.105337
-0.090549566,-0.0011390352,0.013708519,-2.6488667e-09,-0.0026384217,4.6431143e-09,1.0,1.0,0,0.104422
-0.09042168,-0.0011390352,0.012792106,-2.2164124e-09,-0.002638488,5.8266427e-09,1.0,1.0,0,0.103508
-0.090302944,-0.0011390352,0.0118756965,-1.7881597e-09,-0.002638539,1.5568467e-08,1.0,1.0,0,0.102594
-0.09019337,-0.0011390352,0.010959287,-1.7437075e-09,-0.002638581,1.519781e-08,1.0,1.0,0,0.101678
-0.09009294,-0.0011390352,0.010042876,-1.7294052e-09,-0.0026386243,1.5212247e-08,1.0,1.0,0,0.100764
-0.09000168,-0.0011390352,0.009126464,-1.1927344e-09,-0.002638651,1.5731748e-08,1.0,1.0,0,0.099849
-0.08991957,-0.0011390352,0.008210053,-6.4176403e-10,-0.0026386771,1.6261229e-08,1.0,1.0,0,0.098934
-0.08984661,-0.0011390352,0.0072936406,-5.6868316e-10,-0.0026386962,1.7059733e-08,1.0,1.0,0,0.098019
-0.08978281,-0.0011390352,0.00637723,-9.693442e-10,-0.002638714,1.6948395e-08,1.0,1.0,0,0.097104
-0.08972816,-0.0011390352,0.0054608183,-1.1196672e-09,-0.0026387246,2.1102553e-08,1.0,1.0,0,0.096189
-0.089682676,-0.0011390352,0.0045444076,-8.4625174e-10,-0.002638734,1.7007935e-08,1.0,1.0,0,0.095264
-0.089646436,-0.0011390352,0.0036279964,-9.647978e-10,-0.0026387444,2.1232532e-08,1.0,1.0,0,0.094348
-0.08961935,-0.0011390352,0.0027115862,-5.498333e-10,-0.0026387544,1.889733e-08,1.0,1.0,0,0.093434
-0.08960142,-0.0011390352,0.0017951761,-5.553969e-10,-0.0026387488,1.8989136e-08,1.0,1.0,0,0.092518
-0.08959265,-0.0011390352,0.000878766,-4.5473977e-10,-0.0026387514,1.8580607e-08,1.0,1.0,0,0.086659
-0.08959274,-0.0011390352,-1.2249618e-05,-4.098117e-09,-0.002638587,3.5070766e-06,1.0,1.0,0,-0.028028
-0.0895957,-0.0011390352,-0.00029391138,-9.247924e-08,-0.0026342468,8.418892e-05,1.0,1.0,0,0.010785
-0.089597605,-0.0011390352,-0.00018691769,-5.8896056e-08,-0.0026314806,5.353867e-05,1.0,1.0,0,0.016115
-0.0895978,-0.0011390352,-2.5956391e-05,-8.685178e-09,-0.0026310976,7.4344935e-06,1.0,1.0,0,-0.001816
-0.08959742,-0.0011390352,4.3842247e-05,1.3412629e-08,-0.0026317565,-1.2554102e-05,1.0,1.0,0,0.000678
-0.08959703,-0.0011390352,3.690506e-05,1.0936097e-08,-0.0026322925,-1.0570655e-05,1.0,1.0,0,0.002713
-0.08959694,-0.0011390352,9.731797e-06,3.1464233e-09,-0.0026324333,-2.789296e-06,1.0,1.0,0,0.000406
-0.08959703,-0.0011390352,-5.663966e-06,-1.4576736e-09,-0.0026323437,1.6226015e-06,1.0,1.0,0,-0.000118
-0.08959713,-0.0011390352,-6.8390727e-06,-2.1389979e-09,-0.0026322491,1.9590977e-06,1.0,1.0,0,0.000429
-0.08959713,-0.0011390352,-2.6028447e-06,-7.969438e-10,-0.0026321998,7.4627474e-07,1.0,1.0,0,0.000206
-0.08959713,-0.0011390352,5.325986e-07,3.6846698e-10,-0.0026322133,-1.5686686e-07,1.0,1.0,0,-0.000068
-0.08959713,-0.0011390352,1.1916763e-06,1.7605e-10,-0.0026322375,-3.3850483e-07,1.0,1.0,0,0.000057
-0.08959713,-0.0011390352,6.024683e-07,1.7475373e-10,-0.0026322529,-1.8080223e-07,1.0,1.0,0,0.000059
-0.08959713,-0.0011390352,7.682585e-09,-1.748733e-09,-0.002632258,-1.8573848e-08,1.0,1.0,0,-0.000019
-0.08959713,-0.0011390352,-1.9267608e-07,-8.288487e-11,-0.0026322613,4.7061462e-08,1.0,1.0,0,0.000006
-0.08959713,-0.0011390352,-1.2931409e-07,-7.654972e-11,-0.002632264,5.6209e-08,1.0,1.0,0,0.000010
-0.08959713,-0.0011390352,-2.377988e-08,-1.376735e-10,-0.002632268,2.0199495e-08,1.0,1.0,0,-0.000001
-0.08959713,-0.0011390352,2.8040834e-08,1.6541275e-11,-0.0026322738,-2.0038614e-08,1.0,1.0,0,-0.000001
-0.08959713,-0.0011390352,2.779691e-08,1.6572327e-10,-0.0026322803,-1.9634033e-08,1.0,1.0,0,0.000001
-0.08959713,-0.0011390352,1.3368276e-08,1.3225146e-10,-0.0026322878,-2.1890155e-08,1.0,1.0,0,0.000001
-0.08959713,-0.0011390352,1.3372057e-09,2.6879665e-10,-0.002632293,-5.5281006e-09,1.0,1.0,0,-0.000001
-0.08959713,-0.0011390352,-9.522857e-09,-5.0874572e-11,-0.00263229,2.4666722e-08,1.0,1.0,0,100
-0.0036336898,1.4006537,-0.36807245,-0.4562952,0.004217366,0.08337385,0.0,0.0,0,0.395804
-0.007267761,1.3903135,-0.367575,-0.45957834,0.008337056,0.08240242,0.0,0.0,0,0.287889
-0.010902023,1.3798757,-0.36758798,-0.46393618,0.012454433,0.08235536,0.0,0.0,0,0.297901
-0.014536476,1.3693407,-0.3676001,-0.46826315,0.016571311,0.08234511,0.0,0.0,0,0.305734
-0.018171024,1.3587086,-0.36761227,-0.47258648,0.020687554,0.082332194,0.0,0.0,0,0.313337
-0.021805573,1.3479797,-0.36762443,-0.4769091,0.024803123,0.082319126,0.0,0.0,0,0.320854
-0.025440406,1.3371537,-0.36763653,-0.481232,0.028918076,0.082306884,0.0,0.0,0,0.328372
-0.029075336,1.3262308,-0.3676486,-0.48555496,0.03303245,0.08229478,0.0,0.0,0,0.335897
-0.032710362,1.3152107,-0.3676606,-0.48987803,0.03714621,0.082282595,0.0,0.0,0,0.343404
-0.036345482,1.3040936,-0.36767262,-0.49420112,0.041259315,0.08226977,0.0,0.0,0,0.350881
-0.03998089,1.2928796,-0.36768454,-0.49852437,0.045371838,0.0822578,0.0,0.0,0,0.358357
-0.04361639,1.2815685,-0.36769646,-0.5028477,0.049483735,0.082245246,0.0,0.0,0,0.365822
-0.04725189,1.2701603,-0.36770827,-0.5071711,0.053595018,0.08223329,0.0,0.0,0,0.373240
-0.050887585,1.2586553,-0.36772007,-0.5114945,0.057705708,0.08222115,0.0,0.0,0,0.380660
-0.054523468,1.2470531,-0.3677318,-0.5158181,0.061815802,0.08220931,0.0,0.0,0,0.388063
-0.05815945,1.2353538,-0.3677435,-0.5201417,0.06592529,0.082197204,0.0,0.0,0,0.395398
-0.06179552,1.2235577,-0.36775512,-0.52446544,0.07003423,0.08218597,0.0,0.0,0,0.402732
-0.06543179,1.2116646,-0.36776668,-0.5287892,0.074142545,0.082173586,0.0,0.0,0,0.410032
-0.06906815,1.1996742,-0.3677782,-0.5331132,0.0782503,0.08216232,0.0,0.0,0,0.417311
-0.072704695,1.1875869,-0.36778966,-0.53743714,0.082357444,0.08214989,0.0,0.0,0,0.424525
-0.076341435,1.1754025,-0.36780104,-0.5417612,0.08646402,0.082138695,0.0,0.0,0,0.431722
-0.07997818,1.163121,-0.36781237,-0.54608536,0.09056999,0.082126364,0.0,0.0,0,0.438849
-0.08361511,1.1507425,-0.36782366,-0.5504096,0.094675384,0.08211522,0.0,0.0,0,0.445932
-0.08725214,1.1382672,-0.36783487,-0.55473393,0.09878016,0.08210297,0.0,0.0,0,0.452980
-0.09088926,1.1256945,-0.36784604,-0.55905837,0.10288439,0.08209182,0.0,0.0,3,1.068586
-0.0944583,1.1130232,-0.3593139,-0.56334025,0.10527766,0.047865145,0.0,0.0,3,1.441250
-0.0979393,1.1002588,-0.34828526,-0.5673155,0.105460905,0.0036650181,0.0,0.0,3,1.637321
-0.101333424,1.087401,-0.33740348,-0.5713236,0.10346471,-0.039923616,0.0,0.0,3,1.744195
-0.104655266,1.0744569,-0.32833537,-0.5750344,0.099638425,-0.076525494,0.0,0.0,3,1.781738
-0.10791664,1.0614179,-0.32074875,-0.57916284,0.09429321,-0.106904306,0.0,0.0,3,1.964363
-0.111111835,1.0482807,-0.31245428,-0.5834453,0.08729303,-0.14000359,0.0,0.0,3,2.242509
-0.11423035,1.0350531,-0.302835,-0.58739513,0.07836164,-0.17862824,0.0,0.0,3,2.350761
-0.117278956,1.0217305,-0.29406047,-0.59158796,0.06767469,-0.21373883,0.0,0.0,0,1.978043
-0.12032757,1.0083122,-0.29405943,-0.5959175,0.056987844,-0.21373694,0.0,0.0,0,1.984860
-0.123376176,0.9947983,-0.2940585,-0.6002471,0.04630108,-0.21373522,0.0,0.0,0,1.991612
-0.12642498,0.98118854,-0.29405773,-0.60457665,0.0356144,-0.2137336,0.0,0.0,0,1.998241
-0.12947369,0.9674832,-0.29405713,-0.60890615,0.02492781,-0.21373191,0.0,0.0,0,2.004789
-0.1325225,0.9536821,-0.29405668,-0.6132358,0.014241291,-0.21373025,0.0,0.0,0,2.011208
-0.13557129,0.9397854,-0.29405636,-0.61756533,0.0035548666,-0.21372855,0.0,0.0,0,0.591212
-0.13862018,0.925793,-0.29405624,-0.62189496,-0.007131482,-0.21372688,0.0,0.0,0,-0.113572
-0.14166899,0.911705,-0.29405624,-0.6262245,-0.01781774,-0.21372518,0.0,0.0,0,-0.107507
-0.14471778,0.8975212,-0.29405636,-0.63055414,-0.02850392,-0.21372351,0.0,0.0,0,-0.101594
-0.1477665,0.8832417,-0.2940567,-0.6348837,-0.039190013,-0.21372184,0.0,0.0,0,-0.095863
-0.1508152,0.8688666,-0.2940572,-0.63921326,-0.049876027,-0.21372016,0.0,0.0,0,-0.090280
-0.15386382,0.85439575,-0.2940578,-0.6435429,-0.060561948,-0.21371849,0.0,0.0,0,-0.084905
-0.15691242,0.83982927,-0.29405856,-0.6478724,-0.07124779,-0.21371679,0.0,0.0,0,-0.079738
-0.15996094,0.82516724,-0.2940595,-0.65220195,-0.08193356,-0.21371512,0.0,0.0,0,-0.074772
-0.16300936,0.8104095,-0.29406056,-0.6565315,-0.09261923,-0.21371344,0.0,0.0,0,-0.070040
-0.16605768,0.79555607,-0.29406184,-0.660861,-0.10330481,-0.21371171,0.0,0.0,0,-0.065576
-0.169106,0.7806069,-0.2940632,-0.6651906,-0.11399031,-0.21371002,0.0,0.0,2,4.146836
-0.1721118,0.7666619,-0.28964463,-0.62065697,-0.12486764,-0.21754666,0.0,0.0,2,1.737668
-0.1751419,0.75321954,-0.2917387,-0.59842354,-0.1360867,-0.2243809,0.0,0.0,2,4.208225
-0.17815304,0.7408997,-0.28944343,-0.5486524,-0.14773001,-0.23286588,0.0,0.0,0,-0.413383
-0.18116407,0.7284844,-0.28944582,-0.55298364,-0.1593732,-0.23286371,0.0,0.0,0,-0.409448
-0.18417493,0.71597373,-0.28944844,-0.55731493,-0.17101628,-0.23286155,0.0,0.0,0,-0.405785
-0.18718557,0.70336777,-0.2894512,-0.56164616,-0.18265924,-0.2328594,0.0,0.0,0,-0.402390
-0.19019595,0.69066626,-0.2894542,-0.5659774,-0.1943021,-0.23285715,0.0,0.0,0,-0.399302
-0.19320612,0.6778693,-0.28945738,-0.57030857,-0.20594485,-0.23285496,0.0,0.0,0,-0.396537
-0.19621602,0.66497684,-0.28946075,-0.5746396,-0.21758749,-0.23285279,0.0,0.0,2,2.276167
-0.19916153,0.65268487,-0.28288355,-0.5480775,-0.22940393,-0.23632887,0.0,0.0,0,-0.471244
-0.2021068,0.64029735,-0.2828874,-0.55240893,-0.24122025,-0.23632658,0.0,0.0,0,-0.469157
-0.20505181,0.6278145,-0.28289148,-0.55674034,-0.25303647,-0.23632431,0.0,0.0,0,-0.467481
-0.20799652,0.6152362,-0.28289577,-0.5610717,-0.26485255,-0.23632205,0.0,0.0,0,-0.466215
-0.21094084,0.60256255,-0.28290027,-0.56540304,-0.27666858,-0.23631975,0.0,0.0,0,-0.465420
-0.21388483,0.5897935,-0.28290492,-0.5697343,-0.28848448,-0.23631749,0.0,0.0,2,1.399711
-0.21681055,0.57747394,-0.2807353,-0.5499275,-0.30069917,-0.24429397,0.0,0.0,2,5.874627
-0.21951237,0.5665429,-0.258029,-0.48838988,-0.3132818,-0.2516525,0.0,0.0,0,-0.714955
-0.22221375,0.5555166,-0.258035,-0.49272248,-0.3258643,-0.25164974,0.0,0.0,0,-0.714155
-0.22491464,0.54439515,-0.2580412,-0.49705508,-0.33844665,-0.25164703,0.0,0.0,0,-0.713786
-0.22761512,0.5331784,-0.2580477,-0.5013876,-0.35102886,-0.25164425,0.0,0.0,2,4.254984
-0.23014998,0.5230458,-0.24104042,-0.4534322,-0.3641449,-0.26232088,0.0,0.0,2,4.173172
-0.23242621,0.513893,-0.21516629,-0.41000858,-0.37732568,-0.26361609,0.0,0.0,2,5.364608
-0.23429742,0.50587195,-0.17506489,-0.3597333,-0.39016193,-0.25672516,0.0,0.0,0,-1.018496
-0.2361681,0.49775565,-0.17507261,-0.3640661,-0.40299803,-0.2567222,0.0,0.0,0,-1.015627
-0.23803815,0.4895442,-0.17508058,-0.36839882,-0.415834,-0.25671932,0.0,0.0,0,-1.013020
-0.2399077,0.4812376,-0.17508882,-0.37273148,-0.42866984,-0.25671643,0.0,0.0,2,1.300681
-0.2416615,0.47337857,-0.1633948,-0.35299703,-0.44171745,-0.26095158,0.0,0.0,2,3.577673
-0.24314514,0.4663951,-0.13631086,-0.3142371,-0.45491767,-0.26400468,0.0,0.0,2,5.617733
-0.24426532,0.46073923,-0.0996568,-0.25546512,-0.46853846,-0.2724157,0.0,0.0,0,-1.312279
-0.24538474,0.45498827,-0.09966716,-0.25979903,-0.48215908,-0.2724122,0.0,0.0,0,-1.307429
-0.24650335,0.44914243,-0.099677816,-0.2641329,-0.4957795,-0.27240866,0.0,0.0,2,0.948188
-0.2475419,0.44377086,-0.09130457,-0.2433315,-0.5099125,-0.28265956,0.0,0.0,2,4.329759
-0.24807529,0.43939176,-0.041238528,-0.1991996,-0.52364683,-0.27468598,0.0,0.0,2,3.606287
-0.24805836,0.43604115,0.0132897915,-0.15344365,-0.5369127,-0.26531708,0.0,0.0,0,-1.458074
-0.24804072,0.43259525,0.01327862,-0.15777639,-0.55017835,-0.26531383,0.0,0.0,0,-1.450438
-0.24802217,0.42905426,0.013267197,-0.16210905,-0.5634439,-0.2653106,0.0,0.0,0,-1.442842
-0.24800286,0.42541796,0.013255522,-0.16644159,-0.5767093,-0.26530737,0.0,0.0,0,-1.435303
-0.24798265,0.42168647,0.013243599,-0.17077401,-0.58997446,-0.26530415,0.0,0.0,0,-1.427833
-0.24796152,0.4178598,0.013231431,-0.17510633,-0.60323954,-0.26530093,0.0,0.0,0,-1.420424
-0.24793959,0.4139378,0.0132190185,-0.17943856,-0.61650443,-0.26529768,0.0,0.0,3,-2.239620
-0.2478427,0.40983933,0.022699052,-0.18839437,-0.63233006,-0.316513,0.0,0.0,3,-2.224809
-0.24769597,0.40559328,0.028902203,-0.19577746,-0.6498405,-0.35020798,0.0,0.0,3,-2.640460
-0.24747662,0.4011785,0.03790553,-0.20445667,-0.66978097,-0.39881092,0.0,0.0,0,-2.026177
-0.24725509,0.3966707,0.037874922,-0.20880304,-0.689721,-0.3988,0.0,0.0,0,-2.019401
-0.2470313,0.39206973,0.03784354,-0.213149,-0.7096604,-0.39878908,0.0,0.0,0,-2.012707
-0.24680515,0.3873756,0.03781139,-0.21749453,-0.72959936,-0.39877817,0.0,0.0,3,-2.823893
-0.24652366,0.38250732,0.04472006,-0.22643991,-0.7517323,-0.44266018,0.0,0.0,3,-2.960593
-0.24618974,0.37747514,0.05106797,-0.23490779,-0.7758612,-0.4825794,0.0,0.0,0,-2.390600
-0.24585219,0.3723512,0.051017392,-0.2392631,-0.7999892,-0.48256007,0.0,0.0,0,-2.384393
-0.24551097,0.36713564,0.050965548,-0.24361758,-0.82411623,-0.4825407,0.0,0.0,0,-2.378269
-0.24516591,0.3618281,0.05091247,-0.24797124,-0.8482423,-0.48252136,0.0,0.0,0,-2.372244
-0.24481693,0.35642838,0.050858192,-0.25232401,-0.8723674,-0.48250192,0.0,0.0,0,-2.366348
-0.24446401,0.35093653,0.050802756,-0.2566759,-0.8964915,-0.48248252,0.0,0.0,1,-1.357006
-0.24417034,0.34545866,0.042658187,-0.2547658,-0.9177571,-0.42531165,0.0,0.0,1,-1.122790
-0.24393182,0.33999276,0.03511103,-0.25291172,-0.9362509,-0.36987612,0.0,0.0,1,-0.881050
-0.24374446,0.33453864,0.028117005,-0.25103107,-0.95202756,-0.3155325,0.0,0.0,1,-0.885026
-0.24359083,0.3290685,0.023403015,-0.25074875,-0.96584,-0.2762488,0.0,0.0,1,-0.680023
-0.24346618,0.3235867,0.019234236,-0.2502335,-0.9776749,-0.23669827,0.0,0.0,1,-0.504129
-0.24338427,0.31808576,0.013699083,-0.24998468,-0.9874599,-0.19569966,0.0,0.0,1,-0.264293
-0.24333987,0.312574,0.0086902045,-0.24928975,-0.9951119,-0.1530396,0.0,0.0,1,0.098173
-0.24333616,0.30707252,0.0031596664,-0.24738933,-1.0001906,-0.10157488,0.0,0.0,0,-0.502498
-0.24333224,0.30147415,0.00315694,-0.2517105,-1.0052694,-0.10157472,0.0,0.0,0,-0.498165
-0.24332818,0.29577863,0.0031542056,-0.25603166,-1.0103481,-0.101574555,0.0,0.0,0,-0.494139
-0.24332395,0.28998622,0.003151462,-0.26035282,-1.0154268,-0.10157435,0.0,0.0,1,0.329103
-0.24336895,0.28419828,-0.0031799674,-0.25866425,-1.0179099,-0.04966224,0.0,0.0,1,0.450398
-0.24344392,0.2784038,-0.0073002093,-0.25774345,-1.0182756,-0.007315132,0.0,0.0,1,0.667366
-0.24354911,0.272605,-0.011476357,-0.2566917,-1.0164759,0.035993602,0.0,0.0,1,0.750448
-0.24368158,0.2667859,-0.015181531,-0.25654757,-1.0128525,0.07246703,0.0,0.0,1,1.042549
-0.24385719,0.2609605,-0.020755356,-0.25551668,-1.0069249,0.1185544,0.0,0.0,1,1.372359
-0.24408531,0.2551444,-0.027528092,-0.25356704,-0.9982721,0.1730547,0.0,0.0,0,0.844248
-0.24431296,0.24923173,-0.027536035,-0.25789043,-0.98961943,0.1730538,0.0,0.0,0,0.845720
-0.24453998,0.24322237,-0.027543928,-0.2622139,-0.9809668,0.17305288,0.0,0.0,0,0.846742
-0.24476647,0.23711629,-0.02755178,-0.26653737,-0.9723142,0.17305198,0.0,0.0,0,0.847268
-0.24499245,0.23091367,-0.027559582,-0.27086085,-0.9636616,0.17305109,0.0,0.0,0,0.847293
-0.2452178,0.22461434,-0.027567342,-0.27518442,-0.9550091,0.1730502,0.0,0.0,2,3.632172
-0.24480572,0.21894608,0.03619484,-0.24723579,-0.9464873,0.17043567,0.0,0.0,2,2.223701
-0.24392481,0.21386005,0.083277896,-0.22162493,-0.93839806,0.16178477,0.0,0.0,2,1.601549
-0.24278922,0.20923942,0.10912111,-0.20134507,-0.9310121,0.14771894,0.0,0.0,2,-1.118977
-0.2410512,0.20502992,0.16906786,-0.18287525,-0.9232207,0.1558277,0.0,0.0,0,0.871075
-0.2393128,0.20072372,0.16906175,-0.18719833,-0.91542935,0.15582708,0.0,0.0,0,0.872401
-0.2375739,0.1963209,0.16905567,-0.1915214,-0.907638,0.15582642,0.0,0.0,2,-1.484132
-0.23520179,0.1927851,0.23267277,-0.15329303,-0.90038747,0.14501117,0.0,0.0,2,-4.709107
-0.23201999,0.19009961,0.31357542,-0.11550777,-0.89309996,0.14575148,0.0,0.0,2,-4.977601
-0.22815314,0.18786122,0.38160348,-0.095302224,-0.88513386,0.15932193,0.0,0.0,2,-5.795962
-0.22353144,0.18653113,0.45716324,-0.05506271,-0.8773572,0.15553357,0.0,0.0,0,1.170238
-0.21890931,0.18510427,0.45715743,-0.059385948,-0.86958057,0.1555329,0.0,0.0,0,1.171317
-0.21428676,0.18358077,0.4571516,-0.063709214,-0.86180395,0.15553226,0.0,0.0,2,-5.260789
-0.20901093,0.18285635,0.5225209,-0.028285423,-0.8541584,0.15291044,0.0,0.0,2,-5.933964
-0.20305738,0.18317643,0.59064496,0.017807757,-0.84710896,0.14098884,0.0,0.0,0,1.140790
-0.1971035,0.18339981,0.5906402,0.013485006,-0.8400595,0.14098835,0.0,0.0,0,1.137728
-0.19114932,0.18352634,0.59063554,0.009162232,-0.83301014,0.14098786,0.0,0.0,0,1.134696
-0.18519478,0.1835561,0.5906309,0.0048394366,-0.82596076,0.14098743,0.0,0.0,0,1.131654
-0.17923984,0.18348922,0.59062636,0.0005166169,-0.81891143,0.14098689,0.0,0.0,0,1.128621
-0.17328472,0.18332548,0.59062177,-0.003806223,-0.8118621,0.14098641,0.0,0.0,0,1.125571
-0.16732922,0.18306507,0.59061724,-0.0081290845,-0.8048128,0.1409859,0.0,0.0,0,1.122487
-0.16137342,0.18270794,0.5906127,-0.012451966,-0.7977635,0.14098543,0.0,0.0,0,1.119382
-0.15541725,0.18225397,0.59060824,-0.01677487,-0.79071426,0.14098491,0.0,0.0,0,1.116204
-0.14946079,0.18170328,0.5906037,-0.021097792,-0.78366506,0.14098445,0.0,0.0,0,1.112958
-0.14350405,0.18105592,0.5905993,-0.025420738,-0.77661586,0.14098395,0.0,0.0,0,1.109630
-0.13754702,0.18031175,0.5905949,-0.029743705,-0.76956666,0.14098349,0.0,0.0,0,1.106179
-0.1315897,0.17947097,0.5905906,-0.034066692,-0.7625175,0.140983,0.0,0.0,1,1.891647
-0.12567969,0.17859986,0.5844294,-0.034562252,-0.75357854,0.17877994,0.0,0.0,1,2.404450
-0.119833566,0.1777382,0.5759189,-0.032908536,-0.7418524,0.23452261,0.0,0.0,0,1.549303
-0.11398649,0.17678069,0.5759071,-0.037237007,-0.7301264,0.23452035,0.0,0.0,0,1.545054
-0.10813866,0.17572732,0.57589555,-0.04156557,-0.7184005,0.23451813,0.0,0.0,0,1.540600
-0.10229006,0.17457813,0.5758841,-0.04589422,-0.7066747,0.23451586,0.0,0.0,0,1.535909
-0.0964406,0.17333315,0.5758728,-0.05022296,-0.69494903,0.23451364,0.0,0.0,0,1.530930
-0.09059048,0.17199233,0.5758616,-0.054551784,-0.6832235,0.2345114,0.0,0.0,0,1.525643
-0.08473949,0.17055582,0.5758506,-0.058880698,-0.671498,0.23450918,0.0,0.0,0,1.520006
-0.078887746,0.16902345,0.5758399,-0.0632097,-0.65977263,0.23450696,0.0,0.0,0,1.513975
-0.07303524,0.16739538,0.57582915,-0.06753878,-0.6480474,0.23450473,0.0,0.0,0,1.507501
-0.06718187,0.16567148,0.5758186,-0.07186795,-0.63632226,0.23450251,0.0,0.0,0,1.500515
-0.061327837,0.1638518,0.5758082,-0.07619719,-0.62459725,0.23450032,0.0,0.0,0,1.492957
-0.055473138,0.16193655,0.57579803,-0.080526516,-0.61287236,0.2344981,0.0,0.0,0,1.484797
-0.04961767,0.15992554,0.575788,-0.08485592,-0.6011476,0.23449591,0.0,0.0,1,2.446191
-0.04382057,0.15788205,0.568168,-0.08562209,-0.58740485,0.2748563,0.0,0.0,1,2.495398
-0.038075827,0.15578721,0.5614413,-0.08739994,-0.57200855,0.30792612,0.0,0.0,0,1.813826
-0.032329846,0.15359789,0.561425,-0.09173659,-0.5566125,0.3079211,0.0,0.0,0,1.802830
-0.026582813,0.151314,0.561409,-0.096073404,-0.5412167,0.30791605,0.0,0.0,0,1.790869
-0.020834636,0.14893563,0.56139344,-0.10041038,-0.52582115,0.30791098,0.0,0.0,0,1.777891
-0.015085506,0.14646271,0.5613783,-0.10474752,-0.51042587,0.30790597,0.0,0.0,0,1.763781
-0.009335327,0.14389537,0.5613635,-0.10908481,-0.4950308,0.30790094,0.0,0.0,0,1.748445
-0.0035840988,0.14123355,0.5613492,-0.11342224,-0.479636,0.30789593,0.0,0.0,0,1.731797
0.002168083,0.13847746,0.56133527,-0.11775981,-0.46424145,0.30789092,0.0,0.0,0,1.713772
0.007921219,0.13562687,0.5613217,-0.12209754,-0.44884714,0.3078859,0.0,0.0,0,1.694242
0.013675118,0.13268195,0.56130856,-0.12643541,-0.43345308,0.30788085,0.0,0.0,0,1.673151
0.019430066,0.12964275,0.56129587,-0.13077341,-0.4180593,0.30787578,0.0,0.0,0,1.650438
0.025185775,0.12650937,0.5612835,-0.13511153,-0.40266573,0.30787078,0.0,0.0,0,1.626084
0.030942345,0.12328156,0.56127167,-0.13944976,-0.38727242,0.30786574,0.0,0.0,0,1.600030
0.036699675,0.119959556,0.5612602,-0.14378811,-0.37187934,0.3078607,0.0,0.0,0,1.572318
0.04245777,0.1165432,0.5612492,-0.1481266,-0.35648653,0.3078557,0.0,0.0,1,2.611325
0.04814577,0.11306313,0.5523206,-0.15067662,-0.3391848,0.34603482,0.0,0.0,1,2.824830
0.05376034,0.109522544,0.54296124,-0.153131,-0.319881,0.3860766,0.0,0.0,1,2.773036
0.059315015,0.10591057,0.53530544,-0.15621613,-0.29897514,0.41811687,0.0,0.0,0,2.001894
0.064870834,0.10220705,0.5352887,-0.1605711,-0.2780699,0.41810426,0.0,0.0,0,1.969202
0.0704278,0.09841183,0.53527313,-0.16492628,-0.25716534,0.41809168,0.0,0.0,0,1.935640
0.075985715,0.09452506,0.5352586,-0.16928166,-0.23626138,0.41807908,0.0,0.0,0,1.901392
0.08154459,0.090546735,0.5352452,-0.17363723,-0.2153581,0.4180665,0.0,0.0,0,1.866708
0.08710422,0.086477004,0.5352329,-0.17799298,-0.1944554,0.41805387,0.0,0.0,0,1.831826
0.09266462,0.08231571,0.5352217,-0.1823489,-0.17355335,0.4180413,0.0,0.0,0,1.796945
0.09822569,0.07806302,0.5352117,-0.18670496,-0.15265194,0.41802865,0.0,0.0,0,1.762326
0.103787325,0.07371877,0.5352028,-0.19106117,-0.13175113,0.41801602,0.0,0.0,0,1.728137
0.109349445,0.06928304,0.535195,-0.19541748,-0.11085097,0.41800347,0.0,0.0,0,1.694560
0.114911936,0.064755976,0.5351884,-0.1997739,-0.08995145,0.41799083,0.0,0.0,0,1.661756
0.120474815,0.060137495,0.53518283,-0.2041304,-0.06905254,0.4179783,0.0,0.0,0,1.629825
0.12603807,0.055427607,0.5351785,-0.20848697,-0.04815427,0.4179657,0.0,0.0,0,1.598899
0.13160133,0.05062624,0.53517526,-0.21284358,-0.027256615,0.4179531,0.0,0.0,0,1.568985
0.13716468,0.045733675,0.5351733,-0.21720022,-0.0063596,0.41794053,0.0,0.0,0,-1.367203
0.14272813,0.04074963,0.5351724,-0.22155689,0.01453679,0.41792792,0.0,0.0,0,-2.666721
0.1482915,0.035674177,0.5351726,-0.22591355,0.035432547,0.41791534,0.0,0.0,0,-2.693255
0.15385465,0.03050724,0.5351741,-0.23027022,0.056327693,0.41790277,0.0,0.0,0,-2.718715
0.15941763,0.025249038,0.53517663,-0.23462686,0.0772222,0.41789016,0.0,0.0,0,-2.743138
0.16498032,0.019899283,0.53518033,-0.23898345,0.09811608,0.41787758,0.0,0.0,1,-2.293524
0.1704833,0.0144451,0.52773225,-0.24404271,0.120520726,0.44809312,0.0,0.0,1,10.940099
0.17569152,0.009450827,0.51498973,-0.22242284,0.12642704,0.11826237,0.0,1.0,1,14.577607
0.18049517,0.005618093,0.47292575,-0.17096062,0.13380498,0.14753482,1.0,1.0,1,3.076064
0.18500014,0.0028563119,0.44198018,-0.12352107,0.14226672,0.16922255,1.0,1.0,1,2.676299
0.18920526,0.001143167,0.41068363,-0.0771087,0.15207344,0.19613193,1.0,1.0,1,2.182579
0.19311066,0.0004622793,0.37918705,-0.0314642,0.1634147,0.22683255,1.0,1.0,0,0.852413
0.19679031,0.00081329106,0.35724097,0.014382662,0.17416963,0.2151155,1.0,1.0,0,0.355857
0.20024452,0.002154038,0.33638546,0.05850145,0.18324272,0.18148217,1.0,1.0,0,-0.121929
0.20349541,0.0043392517,0.31854373,0.09630236,0.18982847,0.1317377,1.0,1.0,0,-0.472907
0.2066021,0.00710865,0.305489,0.12242784,0.19504939,0.10444613,1.0,1.0,1,0.294243
0.20953627,0.010120878,0.28710663,0.13305038,0.20142144,0.12746191,1.0,1.0,1,-10.097423
0.21240596,0.012975106,0.27868435,0.12570374,0.20978896,0.16736808,1.0,0.0,1,-10.276091
0.21520357,0.015699588,0.270002,0.11967478,0.21966341,0.19750708,0.0,0.0,1,-0.254117
0.21791144,0.018290315,0.2587095,0.11329868,0.23190713,0.24489662,0.0,0.0,1,-0.504230
0.22053146,0.020748291,0.24769032,0.10692387,0.246469,0.29126436,0.0,0.0,1,-0.887645
0.22307749,0.02309197,0.2384932,0.10137793,0.26291925,0.32903516,0.0,0.0,1,-1.160001
0.22556067,0.02531291,0.23066363,0.09543684,0.28103036,0.36225528,0.0,0.0,0,-1.852129
0.22803831,0.027427493,0.23058519,0.09057891,0.298736,0.35413238,0.0,0.0,0,-1.883564
0.23051491,0.029448591,0.23056868,0.08622282,0.3164399,0.35409725,0.0,0.0,0,-1.890004
0.23299018,0.031376205,0.23055275,0.08186702,0.3341416,0.35405338,0.0,0.0,0,-1.896415
0.23546438,0.033210333,0.23053809,0.07751079,0.35184118,0.354011,0.0,0.0,1,-0.988153
0.23784494,0.034905635,0.21889408,0.07053066,0.37206796,0.40455705,0.0,0.0,1,8.772810
0.24011222,0.03660551,0.21024647,0.07115718,0.389561,0.34982973,0.0,1.0,1,-0.626955
0.2422268,0.038344298,0.19908029,0.07383495,0.40280434,0.26486173,0.0,1.0,1,-0.258546
0.24419633,0.040112194,0.18817466,0.0760588,0.41223052,0.18853885,0.0,1.0,1,0.177286
0.24602547,0.041845404,0.1758855,0.0749661,0.41983715,0.15215662,0.0,1.0,1,-0.088273
0.24776974,0.04351045,0.16837576,0.072188936,0.4264144,0.13157181,0.0,1.0,1,0.220660
0.24941349,0.045074426,0.15765223,0.06745846,0.43373507,0.14643328,0.0,1.0,1,-0.140491
0.25098735,0.04654592,0.15031436,0.0631957,0.44144675,0.15424791,0.0,1.0,1,-0.052156
0.25248012,0.04791456,0.14169866,0.05842215,0.44973746,0.16582206,0.0,1.0,1,0.122613
0.25386715,0.049184784,0.13079643,0.053884674,0.4584186,0.17362407,0.0,1.0,1,-0.123149
0.25518236,0.050288424,0.12120356,0.04561087,0.46980727,0.227773,0.0,1.0,1,0.333834
0.256316,0.051430833,0.10783364,0.04888487,0.47593892,0.12262633,0.0,1.0,1,-9.568021
0.25733727,0.052480113,0.097071335,0.044882413,0.48156175,0.11245696,0.0,0.0,1,0.513233
0.25824243,0.05344399,0.08574021,0.04116742,0.48688284,0.1064226,0.0,0.0,1,0.503538
0.25903875,0.054314744,0.07523508,0.037140682,0.49179828,0.098309115,0.0,0.0,1,0.490756
0.25973415,0.05508929,0.06557395,0.033001587,0.4962435,0.088904485,0.0,0.0,1,0.570706
0.26032513,0.05577236,0.055511642,0.029060246,0.50026804,0.08049113,0.0,0.0,1,0.492230
0.26082563,0.056366667,0.046882305,0.025254756,0.50383776,0.07139392,0.0,0.0,0,-0.148244
0.26131457,0.056881223,0.04632993,0.0219261,0.5067287,0.057818364,0.0,0.0,0,-0.091814
0.2617917,0.05731624,0.04577077,0.018608838,0.5089353,0.044130854,0.0,0.0,0,-0.036491
0.2622572,0.057671797,0.04520621,0.015300764,0.5104529,0.030352518,0.0,0.0,0,0.017500
0.26271096,0.057947885,0.044637777,0.01199925,0.5112784,0.016508762,0.0,0.0,0,0.069938
0.26315278,0.05814465,0.044067018,0.008701667,0.51140964,0.0026248586,0.0,0.0,0,0.120627
0.2635828,0.058262024,0.043495554,0.0054053357,0.51084596,-0.011273419,0.0,0.0,0,0.169502
0.2640009,0.05830015,0.042924955,0.0021075502,0.50958794,-0.025160054,0.0,0.0,0,0.216559
0.26440716,0.058258805,0.042356852,-0.001194394,0.5076375,-0.03900916,0.0,0.0,0,0.261940
0.26480168,0.058137998,0.041792776,-0.0045031253,0.50499773,-0.05279529,0.0,0.0,0,0.305883
0.2651845,0.057937656,0.04123426,-0.007821213,0.50167304,-0.0664935,0.0,0.0,0,0.323594
0.2655589,0.057663854,0.04094259,-0.010895088,0.49773157,-0.078831516,0.0,0.0,0,0.360989
0.2659258,0.05731989,0.040747754,-0.013824892,0.4931741,-0.091149256,0.0,0.0,0,0.401777
0.26628533,0.056904897,0.040560093,-0.01680473,0.4880175,-0.103131905,0.0,0.0,0,0.443499
0.26663762,0.05641838,0.04037707,-0.019810047,0.4822677,-0.1149958,0.0,0.0,0,0.485298
0.26698256,0.05585998,0.04019901,-0.022842886,0.4759312,-0.12673052,0.0,0.0,0,0.527172
0.26732045,0.05522927,0.040026285,-0.025905274,0.469015,-0.13832413,0.0,0.0,0,0.569170
0.26765126,0.05452567,0.039859183,-0.028998878,0.4615267,-0.14976637,0.0,0.0,0,0.611256
0.26797515,0.05374869,0.039697934,-0.032125216,0.45347437,-0.16104724,0.0,0.0,0,0.653418
0.26829204,0.052897893,0.039542712,-0.03528537,0.44486645,-0.17215823,0.0,0.0,0,0.695559
0.2686022,0.05197271,0.039393667,-0.03848029,0.43571186,-0.18309186,0.0,0.0,0,0.737642
0.26890564,0.050972637,0.03925085,-0.041710567,0.42601973,-0.19384202,0.0,0.0,0,0.779598
0.26920223,0.04989718,0.0391143,-0.044976655,0.41579956,-0.20440331,0.0,0.0,0,0.821317
0.26949233,0.048745763,0.038983997,-0.04827865,0.40506098,-0.21477187,0.0,0.0,0,0.862766
0.26977596,0.04751781,0.038859904,-0.051616453,0.39381373,-0.22494498,0.0,0.0,0,0.903858
0.2700532,0.046212967,0.038741898,-0.054989837,0.38206768,-0.23492074,0.0,0.0,0,0.944532
0.27032423,0.044830665,0.038629875,-0.058398284,0.36983275,-0.24469881,0.0,0.0,0,0.984755
0.27058905,0.0433704,0.03852365,-0.061841197,0.3571188,-0.25427994,0.0,0.0,0,1.024478
0.2708479,0.041831814,0.03842304,-0.0653177,0.3439355,-0.2636661,0.0,0.0,0,1.063671
0.2711007,0.040214475,0.038327847,-0.0688269,0.3302925,-0.2728597,0.0,0.0,0,1.102284
0.2713477,0.038518034,0.03823781,-0.072367854,0.31619924,-0.28186482,0.0,0.0,0,1.140298
0.2715892,0.036742125,0.038152713,-0.0759394,0.30166495,-0.29068607,0.0,0.0,1,1.569577
0.27172813,0.034905206,0.027968163,-0.078790285,0.28714943,-0.29031062,0.0,0.0,1,1.386172
0.2717784,0.032998476,0.019245517,-0.082014084,0.2725393,-0.2922032,0.0,0.0,1,11.313714
0.2717313,0.031022582,0.009622518,-0.08521332,0.2578671,-0.29344398,1.0,0.0,1,3.056610
0.2714924,0.029558811,-0.0134983435,-0.063495904,0.24824072,-0.19140702,1.0,0.0,1,2.840408
0.2711645,0.028955564,-0.029729918,-0.02630957,0.24514249,-0.061944507,1.0,0.0,0,-0.224842
0.27081203,0.029198252,-0.038040005,0.010311732,0.24800226,0.057217747,1.0,0.0,0,-2.741193
0.27039042,0.03000749,-0.049042635,0.034790996,0.25502837,0.14053701,1.0,0.0,0,-2.183127
0.2699252,0.031110488,-0.055566132,0.04741948,0.2642784,0.18500987,1.0,0.0,0,-1.080856
0.26944265,0.032224428,-0.05747347,0.04782003,0.27371964,0.18883029,1.0,0.0,1,-1.597430
0.26882982,0.033200752,-0.070278496,0.04168413,0.28293982,0.18440415,1.0,0.0,1,-11.550792
0.26812094,0.034105048,-0.079673044,0.03846335,0.2919777,0.1807582,0.0,0.0,1,-1.482204
0.26733026,0.034950837,-0.0877212,0.03583496,0.30088896,0.17822549,0.0,0.0,1,-1.718109
0.26643354,0.035733256,-0.09821252,0.032985985,0.30971077,0.17643662,0.0,0.0,1,-1.864557
0.2654192,0.036457594,-0.10993354,0.030358357,0.31851965,0.17617846,0.0,0.0,0,-0.660491
0.26439828,0.037103686,-0.11004118,0.026944825,0.32680318,0.16567048,0.0,0.0,0,-0.616411
0.26337108,0.037671886,-0.11015254,0.023554364,0.3345539,0.15501441,0.0,0.0,0,-0.571494
0.2623373,0.038162336,-0.110267624,0.020186557,0.3417646,0.14421383,0.0,0.0,0,-0.525776
0.26129705,0.03857554,-0.11038635,0.016840646,0.3484283,0.13327438,0.0,0.0,1,-1.565710
0.2601531,0.038932595,-0.12065617,0.014334524,0.3550233,0.13189968,0.0,0.0,1,-1.332670
0.2589263,0.03922771,-0.12876807,0.011598636,0.3614345,0.12822458,0.0,0.0,1,8.887413
0.25759116,0.039611444,-0.13687392,0.016204381,0.36498192,0.07094808,0.0,1.0,1,-11.143133
0.25616026,0.0399695,-0.1462228,0.0151105095,0.36830077,0.06637732,0.0,0.0,1,-0.822234
0.25466126,0.040292654,-0.15273926,0.013626427,0.37130937,0.06017182,0.0,0.0,0,-0.033469
0.25316018,0.0405475,-0.15236343,0.0107419025,0.37369066,0.04762618,0.0,0.0,0,0.025577
0.25165683,0.040734325,-0.15198524,0.007870082,0.3754422,0.035030954,0.0,0.0,0,0.085063
0.25015134,0.040853344,-0.15160403,0.005011687,0.37656045,0.022364823,0.0,0.0,0,0.144689
0.24864359,0.040904697,-0.15122111,0.0021611634,0.37704346,0.009660039,0.0,0.0,0,0.204331
0.24713382,0.04088839,-0.15083727,-0.0006854177,0.37689015,-0.0030658294,0.0,0.0,0,0.263917
0.24562187,0.04080449,-0.15045328,-0.0035320306,0.3761004,-0.015795145,0.0,0.0,1,-0.475675
0.2440362,0.04068862,-0.15754777,-0.0048805634,0.3750117,-0.021773435,0.0,0.0,1,-0.440313
0.242377,0.04054385,-0.16463417,-0.006099831,0.37365144,-0.027205134,0.0,0.0,1,-0.326109
0.24065122,0.04036232,-0.17097124,-0.007647343,0.37194952,-0.03403839,0.0,0.0,1,-0.334651
0.23885384,0.040143594,-0.17780524,-0.009219655,0.3699029,-0.04093165,0.0,0.0,0,0.470570
0.23705426,0.039856777,-0.17742752,-0.012096574,0.36722416,-0.053575166,0.0,0.0,0,0.529310
0.23525247,0.03950151,-0.1770542,-0.014992935,0.36391833,-0.06611593,0.0,0.0,0,0.587736
0.23344831,0.039077505,-0.17668442,-0.017906116,0.3599888,-0.07859065,0.0,0.0,0,0.645360
0.23164205,0.038584337,-0.17631951,-0.020841395,0.3554405,-0.09096582,0.0,0.0,0,0.845426
0.22983293,0.03806835,-0.17541963,-0.021583294,0.34966,-0.11561023,0.0,0.0,0,0.842875
0.2280221,0.037493285,-0.17495963,-0.024085755,0.34324425,-0.128315,0.0,0.0,0,0.897013
0.22620983,0.03685714,-0.17452458,-0.026694123,0.33622083,-0.14046857,0.0,0.0,0,0.953413
0.22439584,0.03615912,-0.17409645,-0.029337713,0.32859218,-0.15257308,0.0,0.0,0,1.008135
0.22258015,0.035398446,-0.17367938,-0.032032814,0.32036632,-0.16451739,0.0,0.0,0,1.061604
0.22076264,0.034574114,-0.17327411,-0.034782153,0.31155214,-0.17628376,0.0,0.0,0,1.113817
0.21894321,0.033685263,-0.17288095,-0.0375871,0.30215904,-0.18786162,0.0,0.0,0,1.164720
0.21712169,0.032730754,-0.17250022,-0.040448703,0.29219702,-0.19924068,0.0,0.0,0,1.214269
0.21529818,0.031709656,-0.17213207,-0.043367498,0.2816764,-0.21041167,0.0,0.0,0,1.262435
0.21347256,0.030621037,-0.17177656,-0.04634367,0.2706081,-0.2213665,0.0,0.0,0,1.309221
0.21164474,0.029463826,-0.1714336,-0.04937698,0.25900313,-0.23209915,0.0,0.0,0,1.354573
0.20981474,0.02823709,-0.1711033,-0.052466877,0.24687292,-0.24260421,0.0,0.0,0,1.398511
0.20798254,0.026939973,-0.17078544,-0.05561244,0.23422901,-0.252878,0.0,0.0,0,1.325282
0.20614986,0.025547728,-0.17078069,-0.059945654,0.22158527,-0.2528752,0.0,0.0,0,11.548517
0.204313,0.024106845,-0.17018685,-0.06206939,0.20794031,-0.27289963,0.0,1.0,0,1.523011
0.20247373,0.022592936,-0.16990446,-0.06537127,0.19381595,-0.28248712,0.0,1.0,0,1.561198
0.20063229,0.021005355,-0.16963407,-0.068725124,0.179225,-0.29181904,0.0,1.0,0,1.598283
0.19878845,0.019343171,-0.16937453,-0.07212599,0.16417858,-0.30092806,0.0,1.0,0,1.634032
0.19694233,0.017605959,-0.16912557,-0.07557228,0.14868785,-0.3098143,0.0,1.0,0,-0.116919
0.19521055,0.016416201,-0.17676063,-0.053253565,0.15231885,0.07267964,1.0,0.0,0,11.690689
0.19346114,0.01606308,-0.17187007,-0.015423176,0.14923242,-0.06177209,1.0,1.0,0,0.510467
0.19171353,0.015717827,-0.17166647,-0.015071302,0.14613174,-0.06204649,1.0,1.0,0,0.498068
0.18996772,0.015365634,-0.1715094,-0.015379866,0.14304887,-0.061687402,1.0,1.0,0,0.652893
0.18821916,0.015101061,-0.1709628,-0.011420587,0.13913786,-0.07825691,1.0,1.0,0,0.451238
0.18647642,0.014757881,-0.17110981,-0.014978019,0.13596971,-0.0633827,1.0,1.0,1,-0.239721
0.18465738,0.014403042,-0.178471,-0.01548888,0.13253042,-0.06881596,1.0,1.0,1,-0.378181
0.18273115,0.014101562,-0.18837437,-0.013045621,0.1282723,-0.0851884,1.0,1.0,1,-0.616516
0.18070689,0.013733563,-0.19925532,-0.016098468,0.1251049,-0.06337036,1.0,1.0,0,0.570946
0.17868118,0.013316569,-0.19898887,-0.018245142,0.12152775,-0.07156259,1.0,1.0,0,0.576651
0.176657,0.012898002,-0.1988379,-0.018321745,0.11795404,-0.07149084,1.0,1.0,0,0.576402
0.17463426,0.012478576,-0.19868842,-0.018367596,0.11438236,-0.07144743,1.0,1.0,0,0.736881
0.1726079,0.012150274,-0.19815883,-0.014264165,0.10992212,-0.08922619,1.0,1.0,0,0.530743
0.17058754,0.011743937,-0.19831605,-0.017793637,0.106217235,-0.07410498,1.0,1.0,0,0.559273
0.16856909,0.011320577,-0.19826244,-0.018567227,0.102649786,-0.07135453,1.0,1.0,0,0.573759
0.16655198,0.010896287,-0.19812655,-0.018614503,0.09908384,-0.07132344,1.0,1.0,0,0.572992
0.16453609,0.010471067,-0.19799429,-0.018669281,0.09551954,-0.0712899,1.0,1.0,0,0.572259
0.16252156,0.010044561,-0.19786547,-0.018728705,0.0919569,-0.07125601,1.0,1.0,0,0.571605
0.16050816,0.00961698,-0.19773999,-0.01878837,0.0883958,-0.07122489,1.0,1.0,0,0.570958
0.15849599,0.009188221,-0.1976178,-0.018848086,0.084836096,-0.071196295,1.0,1.0,0,0.570321
0.15648508,0.008758316,-0.19749889,-0.018908001,0.08127766,-0.071170256,1.0,1.0,0,0.569687
0.1544754,0.008327232,-0.19738331,-0.018968128,0.077720396,-0.071146645,1.0,1.0,0,0.569084
0.15246677,0.007894967,-0.19727103,-0.019028457,0.07416418,-0.07112538,1.0,1.0,0,0.568487
0.1504592,0.007461557,-0.19716206,-0.01908903,0.07060891,-0.07110641,1.0,1.0,0,0.567891
0.14845276,0.007026968,-0.19705635,-0.019149823,0.06705446,-0.07108982,1.0,1.0,0,0.567321
0.14644727,0.0065911985,-0.19695392,-0.019210866,0.06350073,-0.07107548,1.0,1.0,0,0.566759
0.14444275,0.006154213,-0.19685477,-0.019272188,0.05994759,-0.07106333,1.0,1.0,0,0.566191
0.14243928,0.0057160472,-0.1967589,-0.019333785,0.056394953,-0.07105344,1.0,1.0,0,0.565653
0.14043665,0.0052767373,-0.1966663,-0.019395668,0.052842684,-0.07104573,1.0,1.0,0,0.565116
0.13843489,0.0048361756,-0.19657698,-0.019457838,0.049290698,-0.07104016,1.0,1.0,0,0.564588
0.13643399,0.0043943617,-0.19649096,-0.019520292,0.045738876,-0.071036726,1.0,1.0,0,0.564064
0.13443394,0.0039514042,-0.19640818,-0.019583078,0.042187113,-0.07103543,1.0,1.0,0,0.563553
0.13243465,0.0035071946,-0.19632871,-0.019646164,0.038635306,-0.07103621,1.0,1.0,0,0.563050
0.13043614,0.0030617332,-0.19625248,-0.019709567,0.035083357,-0.071039185,1.0,1.0,0,0.562548
0.12843838,0.002615056,-0.19617952,-0.019773318,0.03153115,-0.07104413,1.0,1.0,0,0.562061
0.12644129,0.002167127,-0.19610982,-0.019837411,0.027978592,-0.07105124,1.0,1.0,0,0.561582
0.12444477,0.0017179108,-0.1960434,-0.019901872,0.024425585,-0.071060434,1.0,1.0,0,0.561091
0.12244902,0.001267407,-0.19598024,-0.01996668,0.020872002,-0.071071774,1.0,1.0,0,0.560617
0.120453835,0.0008157229,-0.19592038,-0.020031856,0.017317751,-0.07108513,1.0,1.0,0,0.560159
0.11845913,0.00036267994,-0.19586375,-0.020097405,0.013762714,-0.07110064,1.0,1.0,0,0.559690
0.116464995,-9.165049e-05,-0.1958104,-0.020163367,0.010206797,-0.071118265,1.0,1.0,0,0.559231
0.11447134,-0.00054730417,-0.19576031,-0.020229705,0.006649889,-0.071138024,1.0,1.0,0,0.558771
0.11247816,-0.0010042452,-0.19571349,-0.020296428,0.003091891,-0.07115984,1.0,1.0,0,0.769481
0.11056805,-0.0010075355,-0.19097754,-0.00016006228,0.003092573,7.426663e-05,1.0,1.0,0,-9.711186
0.10866766,-0.0010041022,-0.1899956,0.00014160594,0.0030867243,-6.553005e-05,0.0,1.0,0,0.278037
0.10677614,-0.0010038161,-0.18910888,2.9851349e-06,0.003084573,-1.3768798e-06,0.0,1.0,0,0.279943
0.10489378,-0.0010036731,-0.1881934,-9.147446e-07,0.0030829064,4.2877636e-07,0.0,1.0,0,0.279059
0.10302086,-0.00100353,-0.18727705,-3.285006e-08,0.0030814982,1.3948389e-08,0.0,1.0,0,0.278140
0.10115709,-0.0010033869,-0.1863605,6.8632295e-09,0.0030803245,-4.9265825e-10,0.0,1.0,0,0.277188
0.099302486,-0.0010033154,-0.18544409,6.865144e-09,0.0030793615,3.656616e-10,0.0,1.0,0,0.276245
0.097457126,-0.001003244,-0.18452771,3.85021e-09,0.0030785608,4.0230086e-09,0.0,1.0,0,0.275316
0.095620915,-0.0010031724,-0.1836113,1.9988116e-09,0.003077903,6.2066228e-09,0.0,1.0,0,0.274389
0.09379387,-0.0010031009,-0.18269491,2.2246562e-09,0.003077355,6.6655055e-09,0.0,1.0,0,0.273463
0.09197597,-0.0010030293,-0.18177852,1.9651725e-09,0.0030768998,6.5816663e-09,0.0,1.0,0,0.272538
0.09016724,-0.0010029578,-0.18086214,1.9299162e-09,0.0030765336,6.3062258e-09,0.0,1.0,0,0.271616
0.088367656,-0.0010029578,-0.17994575,1.7362407e-09,0.0030762265,6.7512054e-09,0.0,1.0,0,0.270686
0.08657732,-0.0010029578,-0.17902936,1.8138665e-09,0.0030759762,6.672056e-09,0.0,1.0,0,2.052868
0.084928796,-0.0005090737,-0.16093639,0.021946253,-0.0008035989,-0.07760086,0.0,1.0,0,-10.105784
0.08328762,-9.347439e-05,-0.16083275,0.018467212,-0.0040404443,-0.064733304,0.0,0.0,0,-0.053654
0.081653595,0.00024276733,-0.16074309,0.014933395,-0.006664934,-0.05248658,0.0,0.0,0,-0.000493
0.08002672,0.0004996514,-0.16065267,0.011405457,-0.008673784,-0.040174562,0.0,0.0,0,0.052974
0.078407004,0.00067721365,-0.16056165,0.007882166,-0.010064429,-0.027810747,0.0,0.0,0,0.106657
0.07679443,0.0007754898,-0.16047019,0.0043622274,-0.010834967,-0.015409181,0.0,0.0,0,0.160455
0.07518911,0.0007945156,-0.16037846,0.00084431766,-0.010984247,-0.0029843713,0.0,0.0,0,0.214270
0.07359104,0.0007342911,-0.1602867,-0.002672923,-0.010511855,0.009448929,0.0,0.0,0,0.268019
0.07200022,0.0005948877,-0.16019496,-0.0061908527,-0.009418115,0.021875901,0.0,0.0,0,0.321596
0.07041655,0.00037612676,-0.16010353,-0.009710831,-0.0077040615,0.034281705,0.0,0.0,0,0.374900
0.06883993,7.815123e-05,-0.16001253,-0.01323421,-0.0053715124,0.046651654,0.0,0.0,0,0.427785
0.06727066,-0.00029918193,-0.15992215,-0.016762286,-0.0024229588,0.058971465,0.0,0.0,0,0.252536
0.065708354,-0.0007559085,-0.15983257,-0.020296333,0.0011383847,0.07122718,0.0,0.0,0,10.845685
0.06416635,-0.0007595563,-0.15419723,-0.00016263599,0.0011421404,7.3929354e-05,0.0,1.0,0,0.251667
0.062634185,-0.0007564807,-0.15321586,0.00013632064,0.001138978,-6.195378e-05,0.0,1.0,0,0.241119
0.061110877,-0.0007564092,-0.15232798,2.9466232e-06,0.0011388996,-1.3372521e-06,0.0,1.0,0,0.242955
0.05959673,-0.0007564092,-0.15141246,-8.8342483e-07,0.0011389062,4.1217436e-07,0.0,1.0,0,0.242117
0.058091737,-0.0007564092,-0.15049616,-3.2387668e-08,0.0011389058,1.416589e-08,0.0,1.0,0,0.241229
0.0565959,-0.0007564092,-0.14957958,6.794382e-09,0.0011388977,-1.1081684e-09,0.0,1.0,0,0.240286
0.05510931,-0.0007564092,-0.14866318,6.3363177e-09,0.001138898,3.85091e-10,0.0,1.0,0,0.239371
0.05363188,-0.0007564092,-0.14774677,6.5974026e-09,0.00113889,6.6331086e-11,0.0,1.0,0,0.238454
0.0521636,-0.0007564092,-0.14683035,5.632168e-09,0.0011388896,-2.1343857e-10,0.0,1.0,0,0.237538
0.05070448,-0.0007564092,-0.14591394,3.902728e-09,0.0011388818,3.1879288e-09,0.0,1.0,0,0.236621
0.049254514,-0.0007564092,-0.14499754,1.4562125e-09,0.0011388815,5.0269096e-09,0.0,1.0,0,0.235705
0.047813702,-0.0007564092,-0.14408113,-3.7047362e-10,0.001138882,5.5304534e-09,0.0,1.0,0,0.234788
0.046382047,-0.0007564092,-0.14316472,-1.2766286e-09,0.0011388826,5.606389e-09,0.0,1.0,0,0.233872
0.044959545,-0.0007564092,-0.1422483,-1.2766345e-09,0.0011388756,5.3555813e-09,0.0,1.0,0,0.232954
0.0435462,-0.0007564092,-0.1413319,-9.1269037e-10,0.0011388836,5.9537975e-09,0.0,1.0,0,0.232039
0.04214201,-0.0007564092,-0.14041549,-5.4182717e-11,0.0011388764,8.967823e-10,0.0,1.0,0,0.231120
0.040746976,-0.0007564092,-0.13949908,4.0287412e-10,0.0011388838,6.6165278e-09,0.0,1.0,0,0.230195
0.03936119,-0.0007564092,-0.13858268,1.2659448e-09,0.001138876,1.564918e-09,0.0,1.0,0,0.229277
0.03798456,-0.0007564092,-0.13766626,1.4041103e-09,0.0011388771,5.574481e-09,0.0,1.0,0,0.228360
0.03661709,-0.0007564092,-0.13674985,1.4131818e-09,0.0011388775,2.7471503e-09,0.0,1.0,0,0.227442
0.03525877,-0.0007564092,-0.13583344,1.4407491e-09,0.001138886,1.0175805e-09,0.0,1.0,0,0.226526
0.033909608,-0.0007564092,-0.13491704,1.4407374e-09,0.0011388795,5.063028e-10,0.0,1.0,0,0.225606
0.0325696,-0.0007564092,-0.13400063,1.4407383e-09,0.0011388871,5.0642773e-10,0.0,1.0,0,0.224690
0.031238746,-0.0007564092,-0.13308421,1.440738e-09,0.0011388799,5.063804e-10,0.0,1.0,0,0.223769
0.02991705,-0.0007564092,-0.1321678,1.4407351e-09,0.0011388876,2.69832e-10,0.0,1.0,0,0.222852
0.028604507,-0.0007564092,-0.1312514,1.4407379e-09,0.0011388811,5.0635685e-10,0.0,1.0,3,1.030121
0.027385807,-0.0007564092,-0.12186845,5.0484977e-07,0.0011388763,-2.3762009e-07,0.0,1.0,3,1.157980
0.026274776,-0.0007564092,-0.11109924,1.353142e-07,0.001138866,-6.263087e-08,0.0,1.0,0,0.201734
0.0251729,-0.0007564092,-0.110183276,-6.348204e-07,0.0011388899,2.9632946e-07,0.0,1.0,0,0.200837
0.024080276,-0.0007564092,-0.10926702,-1.0281643e-08,0.0011388839,1.0126501e-08,0.0,1.0,0,0.199944
0.022996807,-0.0007564092,-0.10835048,6.8168835e-09,0.0011388916,-4.9640646e-11,0.0,1.0,3,1.086644
0.02201519,-0.0007564092,-0.098165125,7.512469e-07,0.0011388664,-3.450678e-07,0.0,1.0,3,0.935353
0.02112112,-0.0007564807,-0.08940505,-2.2268105e-06,0.0011389202,1.0121603e-06,0.0,1.0,0,0.180153
0.020236205,-0.0007564807,-0.08848788,1.4497778e-06,0.0011388935,-6.584085e-07,0.0,1.0,0,0.179138
0.019360447,-0.0007564807,-0.08757163,3.541918e-08,0.0011388867,-9.998125e-09,0.0,1.0,0,0.178203
0.01849394,-0.0007564807,-0.0866554,-9.838996e-09,0.0011388947,6.841147e-09,0.0,1.0,0,0.177301
0.017636586,-0.0007564807,-0.085739,-6.5039867e-09,0.0011388949,-1.1890186e-10,0.0,1.0,0,0.176379
0.016788388,-0.0007564807,-0.08482259,-4.292389e-09,0.0011388953,1.3382063e-09,0.0,1.0,0,0.175456
0.015949344,-0.0007564807,-0.08390617,-1.2832705e-09,0.0011388967,6.0064473e-09,0.0,1.0,0,0.174532
0.015119458,-0.0007564807,-0.08298976,1.4020312e-09,0.0011388973,5.9246337e-09,0.0,1.0,0,0.173606
0.014298725,-0.0007564807,-0.082073346,3.941528e-09,0.0011388983,2.605849e-09,0.0,1.0,0,0.172678
0.013487148,-0.0007564807,-0.08115694,6.0716534e-09,0.0011388985,3.7254524e-10,0.0,1.0,0,0.171749
0.012684727,-0.0007564807,-0.08024053,6.75196e-09,0.0011388988,8.8160826e-11,0.0,1.0,0,0.170818
0.01189146,-0.0007564807,-0.07932412,6.818382e-09,0.001138899,2.3016515e-10,0.0,1.0,0,0.169883
0.01110735,-0.0007564807,-0.07840771,6.6271815e-09,0.0011388999,5.783474e-10,0.0,1.0,0,0.168944
0.010332393,-0.0007564807,-0.0774913,5.916802e-09,0.0011389003,1.2443501e-09,0.0,1.0,0,0.167991
0.009566689,-0.0007564807,-0.07657489,5.6622596e-09,0.0011389013,4.5896723e-10,0.0,1.0,0,0.167040
0.008810138,-0.0007564807,-0.075658485,5.1798024e-09,0.0011389016,5.786868e-10,0.0,1.0,0,0.166081
0.0080627445,-0.0007564807,-0.07474207,4.6973394e-09,0.0011389025,4.5874587e-10,0.0,1.0,0,0.165110
0.0073245047,-0.0007564807,-0.073825665,4.2148827e-09,0.0011389027,4.604726e-10,0.0,1.0,0,0.164121
0.0065954207,-0.0007564807,-0.07290925,3.7324206e-09,0.001138903,4.5917553e-10,0.0,1.0,0,0.163108
0.005875492,-0.0007564807,-0.071992844,3.7324264e-09,0.0011389032,5.788317e-10,0.0,1.0,0,0.162057
0.0051647187,-0.0007564807,-0.07107644,3.7324215e-09,0.0011389041,4.5897158e-10,0.0,1.0,0,0.160948
0.0044631003,-0.0007564807,-0.070160024,3.732422e-09,0.0011389044,4.6058712e-10,0.0,1.0,0,0.159739
0.0037706376,-0.0007564807,-0.06924362,3.732421e-09,0.0011389054,4.591869e-10,0.0,1.0,0,0.158352
0.00308733,-0.0007564807,-0.0683272,3.732426e-09,0.0011389056,5.78716e-10,0.0,1.0,0,0.156610
0.0024131774,-0.0007564807,-0.0674108,3.7324215e-09,0.0011389066,4.5896967e-10,0.0,1.0,0,0.154046
0.0017482757,-0.0007564807,-0.06649439,3.7324224e-09,0.0011389068,4.6046136e-10,0.0,1.0,0,0.149247
0.0010925293,-0.0007564807,-0.06557798,3.7324206e-09,0.001138907,4.5917542e-10,0.0,1.0,0,0.136714
0.00044593812,-0.0007564807,-0.06466157,3.7324255e-09,0.0011389073,5.7883215e-10,0.0,1.0,0,0.101420
-0.0001914978,-0.0007564807,-0.063745156,3.7324215e-09,0.0011389082,4.5897158e-10,0.0,1.0,0,0.058127
-0.0008197784,-0.0007564807,-0.06282875,3.7324224e-09,0.0011389084,4.605874e-10,0.0,1.0,0,0.040625
-0.0014389039,-0.0007564807,-0.06191234,3.7324206e-09,0.0011389094,4.591875e-10,0.0,1.0,0,0.035798
-0.0020488738,-0.0007564807,-0.06099593,3.732426e-09,0.0011389096,5.787163e-10,0.0,1.0,0,0.034491
-0.0026496886,-0.0007564807,-0.060079522,3.732422e-09,0.0011389105,4.589696e-10,0.0,1.0,0,0.034352
-0.0032413483,-0.0007564807,-0.059163112,3.7324224e-09,0.0011389108,4.604615e-10,0.0,1.0,0,0.034690
-0.0038238526,-0.0007564807,-0.058246702,3.732421e-09,0.001138911,4.5917453e-10,0.0,1.0,0,0.035257
-0.0043972014,-0.0007564807,-0.05733029,3.732426e-09,0.0011389112,5.788321e-10,0.0,1.0,0,0.035957
-0.0049612997,-0.0007564807,-0.05641388,3.7324215e-09,0.0011389122,4.589722e-10,0.0,1.0,0,0.036718
-0.005516243,-0.0007564807,-0.055497475,3.7324224e-09,0.0011389124,4.6058718e-10,0.0,1.0,0,0.037523
-0.006062031,-0.0007564807,-0.054581065,3.73242e-09,0.0011389133,4.5918727e-10,0.0,1.0,0,0.038357
-0.0065986635,-0.0007564807,-0.053664654,3.732426e-09,0.0011389136,5.787172e-10,0.0,1.0,0,0.039211
-0.0071261404,-0.0007564807,-0.052748244,3.732422e-09,0.0011389145,4.589697e-10,0.0,1.0,0,0.040079
-0.0076444624,-0.0007564807,-0.051831834,3.7324224e-09,0.0011389147,4.6046153e-10,0.0,1.0,0,0.040956
-0.0081536295,-0.0007564807,-0.050915428,3.732421e-09,0.001138915,4.591751e-10,0.0,1.0,0,0.041842
-0.008653641,-0.0007564807,-0.049999014,3.73242e-09,0.0011389152,3.4197137e-10,0.0,1.0,0,0.042732
-0.009144497,-0.0007564807,-0.049082603,3.7324233e-09,0.0011389161,5.1814036e-10,0.0,1.0,0,0.043627
-0.009626198,-0.0007564807,-0.048166193,3.732421e-09,0.0011389164,4.5896648e-10,0.0,1.0,0,0.044534
-0.010098648,-0.0007564807,-0.047249787,3.7324215e-09,0.0011389173,4.5894288e-10,0.0,1.0,0,0.045435
-0.010561943,-0.0007564807,-0.046333376,3.7324224e-09,0.0011389175,4.5879606e-10,0.0,1.0,0,0.046338
-0.011016083,-0.0007564807,-0.045416966,3.732423e-09,0.0011389185,4.5879625e-10,0.0,1.0,0,0.047243
-0.011461067,-0.0007564807,-0.044500556,3.732422e-09,0.0011389187,4.587611e-10,0.0,1.0,0,0.048149
-0.011896896,-0.0007564807,-0.043584146,3.732421e-09,0.0011389189,4.5893583e-10,0.0,1.0,0,0.049057
-0.01232357,-0.0007564807,-0.04266774,3.7324215e-09,0.0011389191,4.588904e-10,0.0,1.0,0,0.049965
-0.012741089,-0.0007564807,-0.04175133,3.7324215e-09,0.0011389201,4.5889065e-10,0.0,1.0,0,0.050874
-0.013149452,-0.0007564807,-0.04083492,3.732421e-09,0.0011389203,4.5896695e-10,0.0,1.0,0,0.051784
-0.01354866,-0.0007564807,-0.03991851,3.7324215e-09,0.0011389212,4.5894274e-10,0.0,1.0,0,0.052695
-0.013938713,-0.0007564807,-0.0390021,3.732422e-09,0.0011389215,4.587961e-10,0.0,1.0,0,0.053606
-0.014319611,-0.0007564807,-0.03808569,3.732422e-09,0.0011389224,4.587961e-10,0.0,1.0,0,0.054527
-0.014691258,-0.0007564807,-0.03716928,3.732422e-09,0.0011389226,4.587597e-10,0.0,1.0,0,0.055439
-0.015053749,-0.0007564807,-0.03625287,3.732422e-09,0.0011389229,4.58936e-10,0.0,1.0,0,0.056351
-0.015407085,-0.0007564807,-0.03533646,3.7324215e-09,0.0011389231,4.5889048e-10,0.0,1.0,0,0.057263
-0.015751267,-0.0007564807,-0.03442005,3.7324215e-09,0.001138924,4.5889018e-10,0.0,1.0,0,0.058176
-0.016086292,-0.0007564807,-0.033503644,3.7324215e-09,0.0011389243,4.589668e-10,0.0,1.0,0,0.059089
-0.016412163,-0.0007564807,-0.032587234,3.732421e-09,0.0011389252,4.5894294e-10,0.0,1.0,0,0.060002
-0.016728878,-0.0007564807,-0.031670824,3.7324224e-09,0.0011389254,4.5879514e-10,0.0,1.0,0,0.060916
-0.017036438,-0.0007564807,-0.030754413,3.7324224e-09,0.0011389264,4.587962e-10,0.0,1.0,0,0.061829
-0.017334843,-0.0007564807,-0.029838005,3.7324224e-09,0.0011389266,4.5876059e-10,0.0,1.0,0,0.062743
-0.017624091,-0.0007564807,-0.028921595,3.7324215e-09,0.0011389268,4.5893672e-10,0.0,1.0,0,0.063657
-0.017904187,-0.0007564807,-0.028005186,3.7324224e-09,0.0011389271,4.5889062e-10,0.0,1.0,0,0.064580
-0.01817503,-0.0007564807,-0.027088776,3.732422e-09,0.001138928,4.5889018e-10,0.0,1.0,0,0.065494
-0.018436719,-0.0007564807,-0.026172366,3.7324215e-09,0.0011389282,4.5896686e-10,0.0,1.0,0,0.066409
-0.01868925,-0.0007564807,-0.025255958,3.7324215e-09,0.0011389292,4.589436e-10,0.0,1.0,0,0.067323
-0.01893263,-0.0007564807,-0.024339546,3.732422e-09,0.0011389294,4.3001971e-10,0.0,1.0,0,0.068237
-0.019166851,-0.0007564807,-0.023423135,3.732422e-09,0.0011389303,4.3001944e-10,0.0,1.0,0,0.069152
-0.019391919,-0.0007564807,-0.022506725,3.732422e-09,0.0011389306,4.299816e-10,0.0,1.0,0,0.070066
-0.01960783,-0.0007564807,-0.021590313,3.7324224e-09,0.0011389308,4.3022785e-10,0.0,1.0,0,0.070981
-0.019814586,-0.0007564807,-0.020673903,3.7324215e-09,0.001138931,4.3002285e-10,0.0,1.0,0,0.071895
-0.020012189,-0.0007564807,-0.01975749,3.7324215e-09,0.001138932,4.3002285e-10,0.0,1.0,0,0.072810
-0.020200634,-0.0007564807,-0.01884108,3.732422e-09,0.0011389322,4.3007714e-10,0.0,1.0,0,0.073724
-0.020379925,-0.0007564807,-0.01792467,3.7324224e-09,0.0011389331,4.3023637e-10,0.0,1.0,0,0.074649
-0.020549964,-0.0007564807,-0.017008258,3.732422e-09,0.0011389334,4.300194e-10,0.0,1.0,0,0.075563
-0.02071085,-0.0007564807,-0.016091848,3.732422e-09,0.0011389343,4.3001963e-10,0.0,1.0,0,0.076478
-0.02086258,-0.0007564807,-0.015175437,3.732422e-09,0.0011389345,4.2998122e-10,0.0,1.0,0,0.077393
-0.021005154,-0.0007564807,-0.014259025,3.7324224e-09,0.0011389347,4.302277e-10,0.0,1.0,0,0.078308
-0.021138573,-0.0007564807,-0.013342614,3.7324215e-09,0.001138935,4.3002307e-10,0.0,1.0,0,0.079223
-0.021262836,-0.0007564807,-0.012426203,3.7324215e-09,0.0011389359,4.1528098e-10,0.0,1.0,0,0.080137
-0.021377945,-0.0007564807,-0.011509793,3.732423e-09,0.0011389361,5.7685834e-10,0.0,1.0,0,0.081052
-0.021483898,-0.0007564807,-0.010593383,3.7324215e-09,0.0011389371,4.151759e-10,0.0,1.0,0,0.081967
-0.021580696,-0.0007564807,-0.009676972,3.732425e-09,0.0011389373,6.0634e-10,0.0,1.0,0,0.082882
-0.02166834,-0.0007564807,-0.008760562,3.7324224e-09,0.0011389382,4.7406334e-10,0.0,1.0,0,0.083797
-0.021746825,-0.0007564807,-0.007844152,3.732421e-09,0.0011389385,4.1514875e-10,0.0,1.0,0,0.084721
-0.021816064,-0.0007564807,-0.006927741,3.732423e-09,0.0011389387,4.7458715e-10,0.0,1.0,0,0.085636
-0.021876145,-0.0007564807,-0.0060113305,3.732423e-09,0.0011389389,5.3445587e-10,0.0,1.0,0,0.086551
-0.02192707,-0.0007564807,-0.0050949203,3.7324224e-09,0.0011389399,4.959365e-10,0.0,1.0,0,0.087466
-0.021968842,-0.0007564807,-0.00417851,3.732423e-09,0.0011389401,4.958888e-10,0.0,1.0,0,0.088381
-0.022001456,-0.0007564807,-0.0032621,3.7324233e-09,0.001138941,5.3444016e-10,0.0,1.0,0,0.089296
-0.022024918,-0.0007564807,-0.0023456896,3.732425e-09,0.0011389413,5.393771e-10,0.0,1.0,0,0.090211
-0.022039223,-0.0007564807,-0.0014292791,3.732422e-09,0.0011389423,1.763636e-09,0.0,1.0,0,0.091126
-0.022044372,-0.0007564807,-0.0005128687,3.732438e-09,0.0011389428,4.6042166e-09,0.0,1.0,0,0.038426
-0.022043038,-0.0007564807,0.00013191972,-5.8340146e-09,0.0011369709,-3.8311577e-05,0.0,1.0,0,-0.011554
-0.022040557,-0.0007564807,0.00025374486,-1.4383052e-08,0.0011331679,-7.368541e-05,0.0,1.0,0,0.013429
-0.022039318,-0.0007564807,0.00012253951,-7.4394544e-09,0.0011313234,-3.558255e-05,0.0,1.0,0,0.011967
-0.022039318,-0.0007564807,-2.8273143e-06,2.4591268e-10,0.0011313647,8.216024e-07,0.0,1.0,0,-0.003999
-0.0220397,-0.0007564807,-4.182588e-05,2.6960607e-09,0.0011319756,1.2146936e-05,0.0,1.0,0,0.001476
-0.022039985,-0.0007564807,-2.6370788e-05,1.419149e-09,0.0011323852,7.653203e-06,0.0,1.0,0,0.002277
-0.022039985,-0.0007564807,-3.5616238e-06,3.8241457e-10,0.0011324221,1.035693e-06,0.0,1.0,0,-0.000252
-0.02203989,-0.0007564807,6.2797203e-06,-4.176229e-10,0.0011323188,-1.8223618e-06,0.0,1.0,0,0.000120
-0.022039795,-0.0007564807,5.259714e-06,-3.744778e-10,0.0011322318,-1.5258373e-06,0.0,1.0,0,0.000389
-0.022039795,-0.0007564807,1.3835651e-06,-3.1759864e-10,0.0011322134,-4.084492e-07,0.0,1.0,0,0.000056
-0.022039795,-0.0007564807,-8.142227e-07,-1.01907933e-10,0.0011322232,2.4702393e-07,0.0,1.0,0,-0.000018
-0.022039795,-0.0007564807,-9.837497e-07,9.0641335e-11,0.0011322343,2.8998429e-07,0.0,1.0,0,0.000060
-0.022039795,-0.0007564807,-3.776058e-07,-3.739024e-11,0.0011322362,1.18058196e-07,0.0,1.0,0,0.000031
-0.022039795,-0.0007564807,7.4612096e-08,-1.5021892e-10,0.0011322299,-1.4150244e-08,0.0,1.0,0,-0.000009
-0.022039795,-0.0007564807,1.7347497e-07,-1.3928592e-11,0.0011322242,-4.7673524e-08,0.0,1.0,0,0.000009
-0.022039795,-0.0007564807,9.133092e-08,1.3880467e-11,0.0011322183,-2.0114472e-08,0.0,1.0,0,0.000009
-0.022039795,-0.0007564807,5.3441616e-09,-6.4195743e-10,0.0011322135,-1.3005289e-08,0.0,1.0,0,-0.000002
-0.022039795,-0.0007564807,-2.7806104e-08,6.8573615e-12,0.0011322104,1.9407663e-08,0.0,1.0,0,0.000001
-0.022039795,-0.0007564807,-2.2665368e-08,1.2119085e-10,0.0011322066,2.2312136e-08,0.0,1.0,0,0.000001
-0.022039795,-0.0007564807,-1.0854697e-08,-1.5649865e-14,0.0011322045,2.4888e-08,0.0,1.0,0,0.000001
-0.022039795,-0.0007564807,2.7693154e-09,-2.4128072e-10,0.0011322,-9.535148e-09,0.0,1.0,0,-0.000000
-0.022039795,-0.0007564807,1.0403701e-08,-1.41262176e-11,0.0011321941,-2.2755414e-08,0.0,1.0,0,100
0.004481411,1.409458,0.4538974,-0.06498433,-0.0051859845,-0.10281452,0.0,0.0,0,-0.344125
0.008962822,1.4079218,0.4532837,-0.068304926,-0.010266526,-0.101619676,0.0,0.0,0,-0.415944
0.013444519,1.4062887,0.45329928,-0.072626896,-0.01534401,-0.1015592,0.0,0.0,0,-0.411599
0.017926311,1.4045587,0.4533143,-0.07695334,-0.020420833,-0.10154605,0.0,0.0,0,-0.407153
0.022408295,1.4027317,0.45332918,-0.08127691,-0.025496861,-0.10153009,0.0,0.0,0,-0.402776
0.026890468,1.4008077,0.45334417,-0.08560031,-0.030572103,-0.10151385,0.0,0.0,0,-0.398374
0.031372737,1.398787,0.45335907,-0.08992381,-0.03564653,-0.10149796,0.0,0.0,0,-0.393957
0.035855293,1.3966694,0.4533739,-0.09424744,-0.04072016,-0.101481915,0.0,0.0,0,-0.389518
0.04033785,1.3944548,0.4533887,-0.098571174,-0.045793,-0.101465926,0.0,0.0,0,-0.385079
0.04482069,1.3921435,0.4534034,-0.10289502,-0.05086504,-0.10144997,0.0,0.0,0,-0.380627
0.04930363,1.3897352,0.4534181,-0.10721897,-0.055936284,-0.101434074,0.0,0.0,0,-0.376148
0.053786755,1.3872299,0.45343274,-0.11154304,-0.06100674,-0.10141826,0.0,0.0,0,-0.371678
0.058270074,1.3846279,0.45344728,-0.11586721,-0.06607638,-0.101402484,0.0,0.0,0,-0.367162
0.06275358,1.3819289,0.4534618,-0.12019148,-0.07114528,-0.101386786,0.0,0.0,0,-0.362650
0.06723718,1.379133,0.4534762,-0.12451587,-0.07621336,-0.10137111,0.0,0.0,0,-0.358121
0.07172098,1.37624,0.45349056,-0.12884036,-0.081280686,-0.10135551,0.0,0.0,0,-0.353585
0.07620497,1.3732502,0.4535048,-0.13316496,-0.08634722,-0.101339996,0.0,0.0,0,-0.349042
0.08068915,1.3701637,0.45351902,-0.13748963,-0.091412984,-0.101324536,0.0,0.0,0,-0.344484
0.08517341,1.3669802,0.4535331,-0.14181444,-0.09647799,-0.101309106,0.0,0.0,0,-0.339878
0.08965798,1.3636996,0.4535471,-0.14613934,-0.10154223,-0.10129378,0.0,0.0,0,-0.335297
0.09414263,1.3603221,0.453561,-0.15046434,-0.106605686,-0.10127846,0.0,0.0,0,-0.330693
0.09862747,1.3568478,0.4535749,-0.15478946,-0.1116684,-0.1012632,0.0,0.0,0,-0.326084
0.103112504,1.3532765,0.45358866,-0.15911467,-0.11673034,-0.10124806,0.0,0.0,0,-0.321449
0.10759773,1.3496082,0.4536023,-0.16343999,-0.12179154,-0.10123297,0.0,0.0,0,-0.316808
0.11208315,1.345843,0.45361584,-0.16776544,-0.12685199,-0.101217866,0.0,0.0,0,-0.326606
0.116566755,1.3419597,0.453446,-0.17303686,-0.13191228,-0.101205684,0.0,0.0,0,-0.304887
0.12105036,1.3379794,0.45344558,-0.17735901,-0.13697255,-0.10120549,0.0,0.0,0,-0.300291
0.12553406,1.3339021,0.45344514,-0.18168114,-0.14203282,-0.10120529,0.0,0.0,0,-0.295715
0.13001776,1.3297282,0.45344472,-0.18600327,-0.14709309,-0.10120529,0.0,0.0,0,-0.291102
0.13450146,1.3254573,0.4534443,-0.1903254,-0.15215336,-0.101205245,0.0,0.0,0,-0.286507
0.13898525,1.3210896,0.45344383,-0.19464752,-0.15721361,-0.101205066,0.0,0.0,0,-0.281878
0.14346905,1.316625,0.45344335,-0.19896965,-0.16227384,-0.101204894,0.0,0.0,0,-0.277261
0.14795294,1.3120636,0.45344287,-0.20329176,-0.16733405,-0.101204574,0.0,0.0,0,-0.272642
0.15243682,1.3074052,0.4534424,-0.20761389,-0.17239428,-0.10120442,0.0,0.0,0,-0.268017
0.15692082,1.3026501,0.45344192,-0.211936,-0.17745449,-0.101204254,0.0,0.0,0,-0.263381
0.1614048,1.297798,0.45344132,-0.21625811,-0.18251468,-0.10120405,0.0,0.0,0,-0.258755
0.16588888,1.2928492,0.45344076,-0.22058024,-0.18757488,-0.1012039,0.0,0.0,0,-0.254127
0.17037296,1.2878035,0.4534402,-0.22490235,-0.19263506,-0.10120372,0.0,0.0,0,-0.249485
0.17485714,1.2826608,0.45343956,-0.22922444,-0.19769526,-0.10120354,0.0,0.0,0,-0.244859
0.17934132,1.2774212,0.45343894,-0.23354654,-0.20275542,-0.10120338,0.0,0.0,0,-0.240241
0.1838255,1.272085,0.45343834,-0.23786864,-0.20781559,-0.101203226,0.0,0.0,0,-0.235632
0.18830967,1.2666519,0.45343763,-0.24219075,-0.21287574,-0.101203024,0.0,0.0,0,-0.230998
0.19279394,1.2611216,0.4534369,-0.24651285,-0.21793588,-0.10120283,0.0,0.0,0,-0.226415
0.19727822,1.2554947,0.4534362,-0.25083494,-0.22299601,-0.101202644,0.0,0.0,0,-0.221814
0.20176259,1.2497708,0.45343548,-0.25515705,-0.22805613,-0.10120247,0.0,0.0,0,-0.217241
0.20624705,1.24395,0.45343477,-0.25947914,-0.23311627,-0.10120231,0.0,0.0,0,-0.212688
0.2107315,1.2380326,0.453434,-0.26380122,-0.23817638,-0.10120213,0.0,0.0,0,-0.208126
0.21521607,1.2320181,0.45343322,-0.26812327,-0.24323647,-0.101201914,0.0,0.0,0,-0.203588
0.21970072,1.2259067,0.45343247,-0.27244535,-0.24829656,-0.10120169,0.0,0.0,0,-0.199093
0.22418538,1.2196985,0.4534317,-0.27676743,-0.25335664,-0.101201534,0.0,0.0,0,-0.194589
0.22867012,1.2133934,0.4534309,-0.28108948,-0.2584167,-0.10120137,0.0,0.0,0,-0.190143
0.23315497,1.2069917,0.4534301,-0.28541154,-0.2634768,-0.101201154,0.0,0.0,0,-0.185691
0.23763981,1.2004929,0.45342928,-0.2897336,-0.26853684,-0.10120098,0.0,0.0,0,-0.181282
0.24212475,1.1938971,0.45342842,-0.29405564,-0.27359688,-0.1012008,0.0,0.0,0,-0.176891
0.2466096,1.1872045,0.45342755,-0.2983777,-0.27865693,-0.101200625,0.0,0.0,1,0.862511
0.25101796,1.1804358,0.44383502,-0.30141333,-0.28173676,-0.061596613,0.0,0.0,1,1.334705
0.25533372,1.173611,0.43215007,-0.30342537,-0.28232628,-0.011790435,0.0,0.0,1,1.481933
0.25956297,1.1667266,0.4212492,-0.3056551,-0.28059915,0.03454237,0.0,0.0,1,1.633736
0.26371163,1.1597826,0.411065,-0.30789486,-0.27669454,0.078092195,0.0,0.0,1,1.910388
0.2677742,1.1527786,0.40019637,-0.31015334,-0.27048331,0.12422468,0.0,0.0,0,0.953669
0.27183676,1.145678,0.40019506,-0.31447643,-0.2642721,0.12422429,0.0,0.0,0,0.958144
0.2758995,1.1384805,0.40019378,-0.31879956,-0.2580609,0.124223985,0.0,0.0,0,0.962565
0.27996224,1.1311865,0.4001925,-0.32312265,-0.2518497,0.124223664,0.0,0.0,1,2.100086
0.2839424,1.1238354,0.38972872,-0.32531872,-0.24340893,0.16881563,0.0,0.0,1,1.963945
0.28786078,1.1164019,0.38196814,-0.32878432,-0.2333821,0.20053597,0.0,0.0,1,2.589763
0.2916833,1.1089029,0.36988065,-0.33137795,-0.2208494,0.25065422,0.0,0.0,0,1.599241
0.2955061,1.1013086,0.3698762,-0.3357107,-0.20831682,0.25065154,0.0,0.0,0,1.603483
0.2993292,1.0936193,0.36987197,-0.34004357,-0.19578438,0.25064886,0.0,0.0,0,1.607712
0.30315247,1.0858347,0.36986798,-0.34437644,-0.18325208,0.25064617,0.0,0.0,1,2.330724
0.3069167,1.0779696,0.36240584,-0.3478996,-0.16919556,0.28113052,0.0,0.0,1,2.491769
0.31062013,1.0700223,0.354721,-0.3515049,-0.15357661,0.31237897,0.0,0.0,1,3.025865
0.31423312,1.0620072,0.34329873,-0.35446575,-0.13561857,0.35916123,0.0,0.0,1,3.178339
0.31775627,1.0539098,0.33198425,-0.3581631,-0.11538391,0.40469304,0.0,0.0,0,2.384477
0.3212799,1.0457205,0.33197773,-0.3625171,-0.09514984,0.4046816,0.0,0.0,0,2.388274
0.32480383,1.0374396,0.33197224,-0.36687118,-0.07491634,0.40467018,0.0,0.0,1,3.299677
0.32824555,1.0290778,0.3216096,-0.370652,-0.05259861,0.44635463,0.0,0.0,1,3.529293
0.33160314,1.0206423,0.31101555,-0.3742157,-0.028147886,0.4890147,0.0,0.0,1,3.712731
0.3348709,1.012115,0.2997216,-0.3786977,-0.0014391263,0.53417546,0.0,0.0,0,-2.013357
0.33813867,1.0035001,0.2997201,-0.38307735,0.025268327,0.5341492,0.0,0.0,0,-2.297619
0.34140626,0.9947973,0.299721,-0.38745716,0.051974464,0.534123,0.0,0.0,0,-2.294127
0.34467334,0.9860068,0.29972428,-0.39183685,0.078679286,0.5340968,0.0,0.0,0,-2.290748
0.34794006,0.9771289,0.29972997,-0.39621648,0.10538281,0.5340706,0.0,0.0,0,-2.287392
0.35120612,0.968163,0.29973802,-0.400596,0.13208501,0.5340444,0.0,0.0,0,-2.284140
0.3544714,0.9591093,0.29974848,-0.40497532,0.15878591,0.53401816,0.0,0.0,0,-2.280970
0.35773554,0.9499678,0.29976127,-0.40935442,0.1854855,0.53399193,0.0,0.0,0,-2.277896
0.36099854,0.94073826,0.29977646,-0.41373333,0.21218377,0.53396577,0.0,0.0,0,-2.274935
0.3642602,0.9314209,0.29979402,-0.41811192,0.23888072,0.5339396,0.0,0.0,0,-2.272067
0.36752033,0.9220156,0.29981387,-0.42249015,0.2655764,0.5339133,0.0,0.0,0,-2.269308
0.37077874,0.91252214,0.29983607,-0.42686802,0.29227075,0.5338871,0.0,0.0,0,-2.266684
0.37403536,0.9029407,0.29986057,-0.43124545,0.3189638,0.53386086,0.0,0.0,0,-2.264180
0.37728995,0.89327115,0.29988736,-0.43562242,0.34565553,0.5338347,0.0,0.0,0,-2.261769
0.38054237,0.8835131,0.29991642,-0.43999892,0.37234592,0.53380847,0.0,0.0,0,-2.259531
0.3837925,0.8736666,0.29994774,-0.44437486,0.39903504,0.5337823,0.0,0.0,0,-2.257450
0.38704005,0.8637318,0.29998127,-0.4487502,0.42572284,0.53375614,0.0,0.0,0,-2.255506
0.3902851,0.8537084,0.30001703,-0.45312497,0.4524093,0.5337299,0.0,0.0,0,-2.253730
0.39352742,0.8435962,0.30005497,-0.45749906,0.47909445,0.5337037,0.0,0.0,0,-2.252136
0.39676666,0.8333954,0.30009505,-0.46187246,0.5057783,0.5336774,0.0,0.0,0,-2.250717
0.40000296,0.8231056,0.30013728,-0.4662451,0.53246087,0.5336512,0.0,0.0,0,-2.249484
0.403236,0.8127267,0.3001816,-0.470617,0.5591421,0.533625,0.0,0.0,0,-2.248464
0.40646562,0.8022586,0.30022794,-0.4749881,0.58582205,0.5335989,0.0,0.0,0,-2.247659
0.40969172,0.79170126,0.30027634,-0.47935835,0.61250067,0.53357273,0.0,0.0,0,-2.247074
0.41291428,0.78105444,0.30032668,-0.48372772,0.639178,0.53354657,0.0,0.0,2,4.318892
0.41550866,0.7712926,0.23835167,-0.44456038,0.6653295,0.5230323,0.0,0.0,2,4.669093
0.4175563,0.76267964,0.18381187,-0.39402756,0.69186354,0.5306805,0.0,0.0,2,3.250835
0.41906872,0.7549414,0.13073808,-0.35551417,0.718403,0.53078914,0.0,0.0,2,1.657070
0.42002288,0.7477683,0.075834796,-0.3304902,0.744342,0.518781,0.0,0.0,0,-2.434685
0.420973,0.74050456,0.07589125,-0.3348523,0.7702798,0.518757,0.0,0.0,0,-2.428950
0.42191887,0.73315,0.07594932,-0.3392134,0.7962165,0.5187329,0.0,0.0,0,-2.423295
0.42286044,0.7257045,0.07600895,-0.34357348,0.8221519,0.5187088,0.0,0.0,0,-2.417740
0.4237977,0.71816784,0.07607012,-0.3479325,0.8480861,0.5186848,0.0,0.0,2,-0.925069
0.42430717,0.71077126,0.0342933,-0.3416118,0.87325984,0.50347435,0.0,0.0,2,0.529349
0.4244418,0.70398545,-0.003051245,-0.31503755,0.8989925,0.51465285,0.0,0.0,2,-1.989559
0.42418566,0.697313,-0.041231297,-0.30994228,0.9241078,0.5023066,0.0,0.0,0,-2.351329
0.423925,0.69054866,-0.0411686,-0.3142948,0.949222,0.5022848,0.0,0.0,0,-2.344479
0.4236598,0.6836918,-0.041104708,-0.31864628,0.9743352,0.502263,0.0,0.0,0,-2.337701
0.4233899,0.6767425,-0.041039646,-0.32299662,0.9994472,0.50224125,0.0,0.0,0,-2.330999
0.42311534,0.66970056,-0.04097347,-0.32734588,1.0245582,0.5022194,0.0,0.0,0,-2.324372
0.422836,0.6625657,-0.040906206,-0.33169407,1.0496681,0.50219756,0.0,0.0,3,-1.383812
0.42259988,0.65544564,-0.034720454,-0.3296389,1.0720713,0.44806474,0.0,0.0,3,-1.215285
0.42239887,0.6483313,-0.029619087,-0.32809263,1.0920391,0.39935526,0.0,0.0,3,-1.044217
0.42222014,0.64121836,-0.026033137,-0.32682076,1.1098003,0.3552281,0.0,0.0,3,-0.630241
0.42208022,0.634127,-0.020638669,-0.3242443,1.1247485,0.2989654,0.0,0.0,3,-0.667016
0.42195663,0.62702364,-0.01799772,-0.32368517,1.1378059,0.26114848,0.0,0.0,3,-0.307250
0.4218588,0.6199279,-0.0142760025,-0.3219153,1.1484634,0.21314783,0.0,0.0,3,0.032117
0.4217984,0.6128503,-0.009287334,-0.31944162,1.1563722,0.15817563,0.0,0.0,3,0.347716
0.42176646,0.6057997,-0.0052504106,-0.31649795,1.1614455,0.101465024,0.0,0.0,3,0.423325
0.42175856,0.59875125,-0.0019069653,-0.3149915,1.1642345,0.055781536,0.0,0.0,3,0.714978
0.42178184,0.5917127,0.0022145484,-0.3129959,1.1645077,0.0054649245,0.0,0.0,3,1.048992
0.42184314,0.58469474,0.0071478924,-0.31033584,1.1619707,-0.05074075,0.0,0.0,3,1.162832
0.4219246,0.5776805,0.010101183,-0.30876562,1.1571583,-0.09624995,0.0,0.0,3,1.453594
0.42203778,0.5706775,0.014335657,-0.30669722,1.149797,-0.14722483,0.0,0.0,3,1.795046
0.4221816,0.5636993,0.018634727,-0.3038912,1.1396288,-0.20336357,0.0,0.0,3,1.937706
0.42235678,0.55672956,0.022935687,-0.30202514,1.1269792,-0.25299,0.0,0.0,3,2.322672
0.42257422,0.54978764,0.028645536,-0.29902142,1.1113422,-0.31274062,0.0,0.0,3,2.418817
0.4228239,0.54285073,0.03321152,-0.29743004,1.0932995,-0.36085302,0.0,0.0,3,2.714984
0.42310524,0.53592914,0.03791028,-0.2953122,1.0726657,-0.412677,0.0,0.0,3,2.910375
0.42342767,0.52901673,0.04369486,-0.2935215,1.049452,-0.46427417,0.0,0.0,3,3.272640
0.42378673,0.52213246,0.04933003,-0.29079324,1.0233685,-0.52167255,0.0,0.0,3,3.437123
0.42417917,0.51526403,0.054670803,-0.2888711,0.9947155,-0.57306105,0.0,0.0,0,2.946425
0.4245656,0.5083043,0.0547583,-0.29322788,0.9660641,-0.5730286,0.0,0.0,0,2.949864
0.424946,0.5012536,0.05484417,-0.29758635,0.93741435,-0.5729962,0.0,0.0,0,2.953088
0.42532054,0.49411234,0.054928355,-0.30194637,0.90876615,-0.5729638,0.0,0.0,0,2.956084
0.42568922,0.4868806,0.05501079,-0.306308,0.8801196,-0.5729314,0.0,0.0,0,2.958846
0.42605248,0.47955853,0.05509139,-0.3106712,0.85147464,-0.572899,0.0,0.0,0,2.961352
0.4264101,0.47214648,0.055170096,-0.3150359,0.8228314,-0.57286656,0.0,0.0,0,2.963591
0.4267625,0.46464473,0.05524685,-0.31940213,0.79418975,-0.5728342,0.0,0.0,2,6.381165
0.42656928,0.45778272,0.0013755895,-0.2912858,0.7654023,-0.57574904,0.0,0.0,2,5.212816
0.42577094,0.45153353,-0.05816675,-0.26422542,0.7361164,-0.5857186,0.0,0.0,0,3.017841
0.42496768,0.44519565,-0.058093052,-0.26859817,0.70683223,-0.585684,0.0,0.0,0,3.021499
0.42415935,0.43876922,-0.058021717,-0.27297232,0.6775498,-0.5856495,0.0,0.0,0,3.024970
0.42334622,0.43225443,-0.057952784,-0.27734786,0.64826906,-0.5856149,0.0,0.0,2,5.632656
0.42188615,0.4268687,-0.12204678,-0.22759703,0.6188882,-0.5876174,0.0,0.0,2,4.229772
0.42002487,0.4224395,-0.16198556,-0.18569598,0.5898828,-0.5801086,0.0,0.0,2,3.779960
0.41805506,0.41851866,-0.17289627,-0.16380349,0.5615004,-0.56764764,0.0,0.0,2,1.831314
0.41574326,0.41513443,-0.20638232,-0.14031178,0.5328226,-0.5735551,0.0,0.0,0,3.032333
0.41342792,0.41166237,-0.20632842,-0.14469089,0.50414646,-0.5735226,0.0,0.0,0,3.033022
0.41110897,0.4081027,-0.2062771,-0.149071,0.47547194,-0.57349014,0.0,0.0,2,2.447357
0.40849382,0.4054891,-0.23575488,-0.10759342,0.4470538,-0.5683634,0.0,0.0,2,1.387961
0.4055602,0.40404347,-0.26757026,-0.05627031,0.41899666,-0.5611433,0.0,0.0,2,0.306936
0.4023308,0.40389648,-0.29729396,0.00082531205,0.39144272,-0.5510789,0.0,0.0,0,3.001341
0.39909887,0.4036616,-0.29725623,-0.0035534098,0.36389023,-0.55105007,0.0,0.0,0,3.000125
0.39586458,0.40333903,-0.29722098,-0.007932801,0.33633918,-0.5510212,0.0,0.0,0,2.998955
0.3926281,0.40292868,-0.2971882,-0.012312814,0.30878955,-0.55099237,0.0,0.0,2,-0.787150
0.38908395,0.40392938,-0.32777494,0.049900454,0.28129998,-0.54979235,0.0,0.0,2,-2.512690
0.38511783,0.4061291,-0.3690223,0.1028302,0.25304696,-0.56506073,0.0,0.0,0,3.061111
0.38114986,0.40824187,-0.3689958,0.0984454,0.2247955,-0.5650296,0.0,0.0,0,3.059130
0.3771804,0.41026792,-0.36897203,0.094060116,0.1965456,-0.5649985,0.0,0.0,0,3.057218
0.37320957,0.41220704,-0.36895102,0.08967442,0.16829723,-0.56496745,0.0,0.0,0,3.055330
0.3692376,0.4140595,-0.3689328,0.08528835,0.1400504,-0.5649364,0.0,0.0,0,3.053499
0.3652646,0.41582525,-0.3689174,0.08090197,0.11180514,-0.5649053,0.0,0.0,0,3.051701
0.36129084,0.41750443,-0.3689049,0.07651534,0.08356142,-0.5648743,0.0,0.0,0,3.049969
0.3573165,0.4190969,-0.36889514,0.0721285,0.05531928,-0.5648432,0.0,0.0,0,3.048275
0.35334176,0.4206028,-0.36888823,0.067741506,0.027078694,-0.5648121,0.0,0.0,0,2.814548
0.34936696,0.42202222,-0.36888415,0.0633544,-0.0011603654,-0.56478107,0.0,0.0,0,-2.602451
0.34539214,0.4233548,-0.36888292,0.058967248,-0.029397862,-0.5647501,0.0,0.0,0,-2.603687
0.3414175,0.42460084,-0.36888456,0.054580107,-0.057633802,-0.564719,0.0,0.0,0,-2.604873
0.33744335,0.42576036,-0.36888903,0.050193027,-0.085868195,-0.5646879,0.0,0.0,0,-2.605981
0.3334697,0.42683315,-0.36889637,0.045806054,-0.11410102,-0.56465685,0.0,0.0,0,-2.607041
0.32949677,0.42781928,-0.3689065,0.041419253,-0.1423323,-0.56462586,0.0,0.0,0,-2.608060
0.325525,0.42871872,-0.36891946,0.037032664,-0.17056203,-0.56459486,0.0,0.0,0,-2.609022
0.32155448,0.42953154,-0.36893526,0.032646354,-0.19879021,-0.5645639,0.0,0.0,0,-2.609890
0.3175853,0.43025738,-0.36895382,0.028260374,-0.22701684,-0.5645329,0.0,0.0,0,-2.610717
0.3136178,0.4308963,-0.3689752,0.02387477,-0.2552419,-0.5645019,0.0,0.0,0,-2.611476
0.30965203,0.43144834,-0.3689993,0.0194896,-0.28346545,-0.5644709,0.0,0.0,0,-2.612162
0.3056882,0.4319134,-0.36902618,0.015104909,-0.3116874,-0.56443983,0.0,0.0,0,-2.612778
0.30172664,0.4322912,-0.3690558,0.010720754,-0.33990782,-0.56440884,0.0,0.0,0,-2.613330
0.29776746,0.4325819,-0.36908808,0.0063371817,-0.3681267,-0.56437784,0.0,0.0,0,-2.613804
0.29381084,0.43278524,-0.36912304,0.001954247,-0.396344,-0.56434685,0.0,0.0,0,-2.614192
0.2898569,0.4329011,-0.36916065,-0.002428005,-0.4245598,-0.56431586,0.0,0.0,0,-2.614509
0.28590593,0.43292943,-0.3692009,-0.006809521,-0.45277402,-0.5642849,0.0,0.0,0,-2.614743
0.2819581,0.43287006,-0.3692437,-0.011190255,-0.48098668,-0.564254,0.0,0.0,0,-2.614889
0.27801353,0.43272287,-0.36928907,-0.015570155,-0.50919783,-0.564223,0.0,0.0,0,-2.614957
0.27407235,0.43248776,-0.3693369,-0.019949177,-0.53740746,-0.56419206,0.0,0.0,0,-2.614921
0.27013475,0.43216446,-0.36938727,-0.024327273,-0.56561553,-0.56416106,0.0,0.0,0,-2.614800
0.26620102,0.43175277,-0.36944008,-0.028704396,-0.59382206,-0.5641302,0.0,0.0,0,-2.614602
0.2622713,0.4312528,-0.36949524,-0.0330805,-0.62202704,-0.56409925,0.0,0.0,0,-2.614286
0.2583457,0.43066415,-0.3695528,-0.037455544,-0.65023047,-0.5640683,0.0,0.0,1,-3.253664
0.25435257,0.4300729,-0.37883407,-0.03690726,-0.6758369,-0.51213056,0.0,0.0,1,-2.907366
0.25030145,0.4294592,-0.38674602,-0.037305318,-0.69927746,-0.46881253,0.0,0.0,1,-2.596085
0.24620208,0.42880785,-0.39326584,-0.038480345,-0.720952,-0.43349022,0.0,0.0,1,-2.450017
0.24204826,0.42813945,-0.40065295,-0.038481962,-0.74043643,-0.38968968,0.0,0.0,1,-2.245980
0.23783712,0.42745823,-0.40837255,-0.03816021,-0.75759554,-0.34318218,0.0,0.0,1,-1.944931
0.2335742,0.4267726,-0.4154772,-0.03739494,-0.7723998,-0.2960835,0.0,0.0,1,-1.696182
0.22926025,0.426077,-0.42234525,-0.036854915,-0.784937,-0.25074333,0.0,0.0,1,-1.474755
0.22489396,0.42537355,-0.4293464,-0.03616242,-0.7951437,-0.20413454,0.0,0.0,0,-0.786586
0.22052832,0.4245738,-0.4293558,-0.040488604,-0.80535036,-0.20413308,0.0,0.0,0,-0.784909
0.21616325,0.4236779,-0.42936525,-0.044814724,-0.81555694,-0.2041316,0.0,0.0,1,-1.242135
0.21174231,0.42278388,-0.4368178,-0.04349764,-0.82319015,-0.15266474,0.0,0.0,1,-1.026453
0.20726117,0.42188373,-0.44459406,-0.04254695,-0.8283053,-0.1023036,0.0,0.0,1,-0.708411
0.20272645,0.42098087,-0.45165688,-0.041445214,-0.8309557,-0.053007506,0.0,0.0,1,-0.447312
0.19814186,0.42005312,-0.4580508,-0.041534252,-0.8315633,-0.01215227,0.0,0.0,0,0.185010
0.19355717,0.41902822,-0.45805082,-0.045854278,-0.8321709,-0.012152206,0.0,0.0,0,0.186836
0.18897256,0.41790614,-0.45805082,-0.050174303,-0.8327785,-0.0121520255,0.0,0.0,1,-0.356259
0.18432179,0.4167814,-0.46649528,-0.048951566,-0.8307006,0.04155857,0.0,0.0,1,-0.099188
0.17960367,0.41565686,-0.47512403,-0.04757438,-0.82586944,0.09662214,0.0,0.0,0,0.735537
0.17488556,0.41443536,-0.47512618,-0.051895715,-0.82103837,0.096621975,0.0,0.0,0,0.737294
0.17016773,0.41311693,-0.47512832,-0.056217052,-0.8162073,0.09662183,0.0,0.0,0,0.739114
0.16545,0.41170135,-0.4751305,-0.0605384,-0.8113762,0.09662164,0.0,0.0,0,0.740949
0.16073255,0.41018894,-0.47513264,-0.064859755,-0.80654514,0.09662147,0.0,0.0,0,0.742841
0.1560152,0.40857956,-0.47513476,-0.069181114,-0.80171406,0.09662132,0.0,0.0,0,0.744764
0.15129796,0.4068731,-0.4751369,-0.07350249,-0.796883,0.096621156,0.0,0.0,0,0.746720
0.14658079,0.40506965,-0.47513905,-0.07782386,-0.79205185,0.09662101,0.0,0.0,2,4.116599
0.14221391,0.4035076,-0.44041485,-0.066919066,-0.78682613,0.10451438,0.0,0.0,2,7.610036
0.13853511,0.40249658,-0.3722244,-0.04204715,-0.78076875,0.12114768,0.0,0.0,0,0.777774
0.1348565,0.40138865,-0.37222767,-0.04636934,-0.7747114,0.12114736,0.0,0.0,0,0.779739
0.13117819,0.4001839,-0.37223095,-0.050691545,-0.76865405,0.12114708,0.0,0.0,0,0.781780
0.12750006,0.39888218,-0.37223417,-0.055013765,-0.76259667,0.12114681,0.0,0.0,0,0.783831
0.12382221,0.3974838,-0.37223738,-0.059335995,-0.7565394,0.121146485,0.0,0.0,0,0.785962
0.12014456,0.39598855,-0.3722406,-0.063658245,-0.75048214,0.12114616,0.0,0.0,0,0.788154
0.116467096,0.3943964,-0.37224376,-0.06798049,-0.7444248,0.12114586,0.0,0.0,0,0.790370
0.112789914,0.39270747,-0.37224692,-0.07230275,-0.7383675,0.12114558,0.0,0.0,0,0.792642
0.10911293,0.39092168,-0.37225005,-0.076625034,-0.73231024,0.12114526,0.0,0.0,0,0.794971
0.10543613,0.38903898,-0.3722532,-0.08094733,-0.7262529,0.12114493,0.0,0.0,0,0.797326
0.10175953,0.38705945,-0.3722563,-0.085269645,-0.7201957,0.12114459,0.0,0.0,2,4.059480
0.09840298,0.38550147,-0.34032586,-0.06652983,-0.7140806,0.12230396,0.0,0.0,2,4.653021
0.095434666,0.3843675,-0.30175555,-0.047568094,-0.70766073,0.12839666,0.0,0.0,0,0.761491
0.09246664,0.3831367,-0.30175894,-0.05189073,-0.7012409,0.12839632,0.0,0.0,0,0.763258
0.0894989,0.38180918,-0.3017623,-0.05621338,-0.6948211,0.12839597,0.0,0.0,0,0.765112
0.086531356,0.3803848,-0.30176568,-0.06053604,-0.68840134,0.12839562,0.0,0.0,0,0.767023
0.083564,0.3788637,-0.30176902,-0.06485872,-0.68198156,0.12839523,0.0,0.0,0,0.768997
0.080596924,0.3772457,-0.30177233,-0.06918141,-0.67556185,0.12839487,0.0,0.0,0,0.771025
0.07763004,0.37553108,-0.3017756,-0.07350412,-0.6691421,0.1283945,0.0,0.0,0,0.773134
0.074663356,0.37371963,-0.30177885,-0.07782685,-0.6627224,0.1283941,0.0,0.0,2,6.820581
0.07225189,0.3730129,-0.24608418,-0.028861186,-0.65655756,0.12329713,0.0,0.0,0,0.686236
0.069840625,0.37220922,-0.24608715,-0.033183716,-0.6503927,0.12329678,0.0,0.0,0,0.687058
0.06742954,0.37130886,-0.24609008,-0.03750626,-0.64422786,0.123296484,0.0,0.0,0,0.687945
0.065018654,0.37031174,-0.246093,-0.041828815,-0.63806313,0.12329613,0.0,0.0,0,0.688946
0.06260796,0.36921775,-0.24609587,-0.04615139,-0.6318983,0.12329581,0.0,0.0,0,0.689990
0.060197543,0.36802697,-0.24609871,-0.05047397,-0.62573355,0.12329546,0.0,0.0,0,0.691138
0.05778723,0.3667394,-0.24610154,-0.05479656,-0.6195688,0.123295166,0.0,0.0,0,0.692365
0.055377103,0.36535507,-0.24610436,-0.059119165,-0.61340404,0.123294845,0.0,0.0,0,0.693683
0.05296726,0.36387393,-0.24610715,-0.06344178,-0.6072393,0.12329451,0.0,0.0,0,0.695096
0.050557613,0.362296,-0.24610989,-0.0677644,-0.6010746,0.12329415,0.0,0.0,0,0.696588
0.04814806,0.3606213,-0.24611263,-0.07208704,-0.59490997,0.12329383,0.0,0.0,0,0.698194
0.045738794,0.35884982,-0.24611536,-0.0764097,-0.5887453,0.1232935,0.0,0.0,0,0.699891
0.04332962,0.35698158,-0.24611802,-0.08073236,-0.5825807,0.123293184,0.0,0.0,0,0.701694
0.040920638,0.35501656,-0.24612066,-0.08505504,-0.576416,0.12329285,0.0,0.0,0,0.703591
0.03851185,0.3529547,-0.24612331,-0.08937772,-0.5702514,0.12329253,0.0,0.0,0,0.705589
0.036103345,0.3507961,-0.2461259,-0.09370041,-0.56408674,0.12329217,0.0,0.0,0,0.707673
0.033694934,0.34854078,-0.24612851,-0.09802311,-0.5579222,0.123291865,0.0,0.0,0,0.709875
0.031286716,0.34618866,-0.24613109,-0.10234583,-0.5517576,0.12329155,0.0,0.0,0,0.712172
0.028878594,0.34373975,-0.24613361,-0.10666857,-0.54559296,0.12329124,0.0,0.0,0,0.714554
0.026470756,0.3411941,-0.24613614,-0.11099131,-0.5394284,0.12329093,0.0,0.0,0,0.717048
0.024063015,0.33855158,-0.24613865,-0.11531405,-0.53326386,0.1232906,0.0,0.0,0,0.719614
0.021655465,0.33581245,-0.2461411,-0.11963682,-0.5270993,0.12329028,0.0,0.0,2,5.421272
0.019657422,0.33368677,-0.2056834,-0.092208594,-0.5204005,0.1339752,0.0,0.0,2,5.001616
0.017995168,0.33241984,-0.17202087,-0.0541101,-0.5138191,0.13162868,0.0,0.0,0,0.668250
0.016333103,0.3310562,-0.1720236,-0.058433283,-0.5072377,0.13162826,0.0,0.0,0,0.667916
0.014671231,0.32959592,-0.17202629,-0.06275647,-0.5006563,0.13162784,0.0,0.0,0,0.667813
0.013009548,0.3280389,-0.17202894,-0.06707967,-0.49407494,0.13162747,0.0,0.0,0,0.667913
0.011347962,0.32638523,-0.17203157,-0.071402885,-0.48749357,0.13162711,0.0,0.0,0,0.668234
0.009686661,0.32463485,-0.17203417,-0.075726114,-0.48091224,0.1316267,0.0,0.0,0,0.668780
0.008025551,0.32278776,-0.17203674,-0.08004935,-0.47433093,0.13162632,0.0,0.0,0,0.669551
0.0063645365,0.320844,-0.17203926,-0.084372595,-0.46774963,0.13162594,0.0,0.0,0,0.670533
0.0047037126,0.31880358,-0.17204174,-0.08869586,-0.46116835,0.13162556,0.0,0.0,0,0.671744
0.0030430793,0.31666648,-0.17204422,-0.09301913,-0.4545871,0.13162516,0.0,0.0,0,0.673176
0.0013826371,0.31443265,-0.17204665,-0.09734241,-0.44800586,0.13162479,0.0,0.0,0,0.674815
-0.00027770997,0.3121022,-0.17204905,-0.101665705,-0.44142464,0.13162439,0.0,0.0,0,0.676681
-0.0019378662,0.30967498,-0.1720514,-0.105989,-0.43484342,0.13162401,0.0,0.0,0,0.678728
-0.0035978318,0.3071512,-0.17205374,-0.11031231,-0.42826223,0.13162358,0.0,0.0,0,0.680998
-0.0052576065,0.30453065,-0.17205605,-0.114635624,-0.42168108,0.13162318,0.0,0.0,2,5.254992
-0.006676006,0.30318332,-0.14728025,-0.05827059,-0.4158095,0.11743162,0.0,0.0,2,5.444568
-0.0076626777,0.3025379,-0.1048805,-0.026870755,-0.4091063,0.13406399,0.0,0.0,0,0.626295
-0.008649063,0.3017958,-0.10488279,-0.03119423,-0.40240315,0.13406357,0.0,0.0,0,0.619935
-0.009635353,0.30095708,-0.10488504,-0.035517715,-0.39569998,0.13406317,0.0,0.0,0,0.614124
-0.010621453,0.30002168,-0.10488726,-0.039841212,-0.38899684,0.13406278,0.0,0.0,0,0.608883
-0.011607361,0.29898965,-0.10488944,-0.044164713,-0.38229373,0.13406238,0.0,0.0,0,0.604237
-0.012593269,0.29786104,-0.1048916,-0.048488222,-0.37559062,0.13406196,0.0,0.0,0,0.600219
-0.013578987,0.29663575,-0.10489371,-0.05281175,-0.36888754,0.13406153,0.0,0.0,0,0.596814
-0.014564514,0.2953138,-0.104895785,-0.05713528,-0.3621845,0.13406113,0.0,0.0,0,0.594038
-0.015549851,0.29389516,-0.104897834,-0.061458822,-0.35548145,0.13406071,0.0,0.0,0,0.591857
-0.016535187,0.29237998,-0.10489984,-0.06578237,-0.34877843,0.13406028,0.0,0.0,0,0.590283
-0.017520333,0.29076815,-0.104901806,-0.07010592,-0.34207544,0.13405986,0.0,0.0,0,0.589288
-0.018505286,0.28905967,-0.104903735,-0.07442949,-0.33537248,0.13405944,0.0,0.0,0,0.588865
-0.019490147,0.2872545,-0.10490563,-0.07875308,-0.32866952,0.13405904,0.0,0.0,0,0.588969
-0.020474816,0.2853527,-0.1049075,-0.08307666,-0.3219666,0.13405864,0.0,0.0,0,0.589593
-0.021459484,0.28335422,-0.10490932,-0.08740025,-0.3152637,0.1340582,0.0,0.0,0,0.590693
-0.022443961,0.28125918,-0.104911126,-0.091723844,-0.3085608,0.1340578,0.0,0.0,0,0.592256
-0.023428345,0.2790675,-0.10491288,-0.09604745,-0.30185792,0.13405736,0.0,0.0,3,0.817503
-0.024347592,0.27673918,-0.096652284,-0.1025068,-0.29697496,0.097659245,0.0,0.0,3,0.573875
-0.025208473,0.27428335,-0.08926184,-0.10850177,-0.2936924,0.06565055,0.0,0.0,3,0.486759
-0.025978183,0.27169597,-0.07780795,-0.11482579,-0.2928244,0.017360482,0.0,0.0,3,0.097725
-0.026683236,0.268988,-0.0696906,-0.12051763,-0.2936622,-0.016755972,0.0,0.0,3,-0.129947
-0.027295303,0.26614404,-0.0579939,-0.12705228,-0.29698417,-0.0664396,0.0,0.0,0,-0.440246
-0.027907467,0.26320302,-0.057994317,-0.13137318,-0.3003061,-0.066439554,0.0,0.0,0,-0.433034
-0.028519535,0.26016492,-0.057994723,-0.13569406,-0.30362812,-0.06643953,0.0,0.0,0,-0.425679
-0.029131508,0.25702974,-0.05799514,-0.14001495,-0.3069501,-0.066439465,0.0,0.0,0,-0.418199
-0.029743481,0.2537975,-0.057995565,-0.14433582,-0.31027207,-0.06643938,0.0,0.0,0,-0.410618
-0.030355453,0.25046825,-0.057995994,-0.1486567,-0.31359404,-0.066439345,0.0,0.0,0,-0.402931
-0.030967426,0.2470419,-0.057996422,-0.1529776,-0.31691602,-0.06643929,0.0,0.0,0,-0.395166
-0.031579304,0.24351849,-0.057996858,-0.15729848,-0.320238,-0.06643923,0.0,0.0,0,-0.387338
-0.03219118,0.239898,-0.057997297,-0.16161937,-0.32355997,-0.0664392,0.0,0.0,0,-0.379448
-0.03280306,0.23618045,-0.057997745,-0.16594025,-0.3268819,-0.06643914,0.0,0.0,0,-0.371522
-0.033414938,0.23236586,-0.05799819,-0.17026113,-0.33020383,-0.066439085,0.0,0.0,0,-0.363565
-0.034026813,0.22845419,-0.057998646,-0.17458202,-0.33352578,-0.06643906,0.0,0.0,0,-0.355581
-0.034638595,0.22444548,-0.057999104,-0.17890291,-0.3368477,-0.06643902,0.0,0.0,0,-0.347598
-0.035250377,0.22033976,-0.057999562,-0.18322378,-0.3401696,-0.066438965,0.0,0.0,0,-0.339602
-0.035862066,0.21613692,-0.05800002,-0.18754466,-0.34349152,-0.06643892,0.0,0.0,0,-0.331635
-0.03647375,0.21183701,-0.058000494,-0.19186553,-0.3468135,-0.06643887,0.0,0.0,0,-0.323679
-0.037085436,0.20744005,-0.05800097,-0.1961864,-0.35013542,-0.06643879,0.0,0.0,0,-0.315768
-0.03769703,0.20294602,-0.058001447,-0.20050727,-0.35345733,-0.06643872,0.0,0.0,0,-0.307914
-0.03830862,0.19835502,-0.058001935,-0.20482813,-0.35677925,-0.066438675,0.0,0.0,0,-0.300105
-0.038920213,0.1936668,-0.058002423,-0.20914902,-0.36010113,-0.0664386,0.0,0.0,0,-0.292404
-0.039531708,0.18888159,-0.05800292,-0.21346988,-0.36342308,-0.066438556,0.0,0.0,0,-0.284785
-0.04014311,0.18399933,-0.058003414,-0.21779074,-0.36674497,-0.06643851,0.0,0.0,0,-0.277303
-0.04075451,0.17902,-0.058003914,-0.22211161,-0.3700669,-0.06643846,0.0,0.0,0,-0.269954
-0.04136591,0.17394362,-0.058004417,-0.22643249,-0.37338883,-0.06643841,0.0,0.0,0,-0.262777
-0.04197731,0.16877018,-0.058004927,-0.23075335,-0.37671074,-0.066438355,0.0,0.0,0,-0.255796
-0.04258852,0.16349967,-0.05800544,-0.23507422,-0.38003263,-0.066438325,0.0,0.0,0,-0.249066
-0.043199826,0.1581321,-0.05800596,-0.23939508,-0.38335457,-0.066438265,0.0,0.0,0,-0.242606
-0.043811034,0.15266748,-0.058006477,-0.24371594,-0.38667652,-0.06643822,0.0,0.0,0,-0.236470
-0.044422247,0.14710572,-0.058007002,-0.2480368,-0.38999844,-0.06643815,0.0,0.0,0,-0.230729
-0.045033455,0.1414469,-0.05800753,-0.25235763,-0.39332032,-0.06643811,0.0,0.0,0,-0.225461
-0.04564457,0.1356911,-0.058008075,-0.2566785,-0.3966422,-0.06643804,0.0,0.0,0,-0.220742
-0.04625578,0.12983824,-0.05800861,-0.26099935,-0.3999641,-0.066438004,0.0,0.0,0,-0.216663
-0.046866894,0.123888165,-0.058009155,-0.2653202,-0.40328598,-0.06643794,0.0,0.0,0,-0.213404
-0.047477912,0.117841184,-0.058009695,-0.26964107,-0.4066079,-0.06643788,0.0,0.0,0,-0.211075
-0.04808893,0.11169706,-0.058010243,-0.27396193,-0.40992978,-0.06643784,0.0,0.0,0,-0.209917
-0.048699856,0.10545588,-0.058010805,-0.27828276,-0.4132517,-0.066437796,0.0,0.0,0,-0.210178
-0.04931078,0.09911772,-0.05801137,-0.28260362,-0.41657358,-0.06643771,0.0,0.0,0,-0.212159
-0.049921703,0.09268235,-0.058011938,-0.28692445,-0.41989544,-0.066437684,0.0,0.0,0,-0.216309
-0.05053253,0.08614999,-0.058012508,-0.2912453,-0.42321733,-0.06643764,0.0,0.0,0,-0.223114
-0.051143266,0.07952057,-0.05801308,-0.2955661,-0.4265392,-0.066437565,0.0,0.0,2,4.726317
-0.05152273,0.073937714,-0.034439538,-0.2491965,-0.43034506,-0.07611671,0.0,0.0,2,2.798340
-0.0515543,0.06897899,-0.00015052772,-0.22131276,-0.4336167,-0.06543262,0.0,0.0,0,-0.361847
-0.05158596,0.0639232,-0.00015109638,-0.2256336,-0.43688834,-0.06543258,0.0,0.0,0,-0.367026
-0.051617432,0.058770355,-0.00015166892,-0.22995442,-0.44016,-0.06543252,0.0,0.0,0,-0.375047
-0.051648904,0.053520378,-0.00015224543,-0.23427525,-0.44343162,-0.065432474,0.0,0.0,0,-0.386551
-0.051680375,0.048173342,-0.0001528264,-0.23859605,-0.44670323,-0.065432414,0.0,0.0,0,16.130918
-0.051715948,0.043740258,-0.01603946,-0.19306774,-0.43317515,0.27041286,1.0,0.0,0,6.838093
-0.05166302,0.04001449,-0.023457449,-0.15704526,-0.40212554,0.6209649,1.0,0.0,0,7.094424
-0.051534556,0.03680199,-0.029310217,-0.13149811,-0.35726458,0.89725286,1.0,0.0,2,11.039816
-0.05089588,0.03497165,0.016630644,-0.0703757,-0.30785078,0.9883192,1.0,0.0,2,5.931913
-0.050090887,0.03367568,0.034021154,-0.048471056,-0.26002103,0.95659465,1.0,0.0,0,-5.444554
-0.049280833,0.032311972,0.03393872,-0.052976944,-0.21219893,0.95644397,0.0,0.0,0,4.547004
-0.048466586,0.030880747,0.033869706,-0.057485215,-0.16438434,0.9562934,0.0,0.0,0,4.539913
-0.047649097,0.029382357,0.03381427,-0.061995447,-0.11657728,0.9561428,0.0,0.0,0,4.533819
-0.04682932,0.02781702,0.03377253,-0.066507205,-0.06877774,0.9559922,0.0,0.0,0,4.528406
-0.0460083,0.026184663,0.033744574,-0.07102005,-0.020985732,0.9558417,0.0,0.0,0,-0.836356
-0.045186996,0.024485502,0.03373047,-0.07553355,0.026798755,0.95569146,0.0,0.0,0,-5.036825
-0.04436617,0.022719393,0.033730242,-0.08004724,0.07457574,0.95554113,0.0,0.0,0,-5.040248
-0.043547057,0.020886336,0.03374388,-0.08456071,0.1223452,0.95539093,0.0,0.0,0,-5.043960
-0.04273052,0.018986188,0.033771344,-0.089073494,0.17010717,0.95524085,0.0,0.0,0,9.517037
-0.042015456,0.017759666,0.042081375,-0.05820427,0.19951813,0.5880383,0.0,1.0,0,0.870239
-0.041485596,0.017068515,0.042360466,-0.032194328,0.21018802,0.21335146,0.0,1.0,0,2.292028
-0.04118986,0.01682869,0.037755404,-0.009532103,0.20189829,-0.16585661,0.0,1.0,0,2.430823
-0.041042138,0.01684235,0.034914684,0.0032144631,0.18159935,-0.4060324,0.0,1.0,0,2.440891
-0.040935896,0.01686345,0.034201786,0.003640628,0.15794802,-0.4730758,0.0,1.0,0,2.178267
-0.040809155,0.016768679,0.035223678,-0.001976722,0.13543452,-0.4502893,0.0,1.0,0,-7.873890
-0.040674686,0.016572986,0.035632297,-0.0068304557,0.11337002,-0.44129014,0.0,0.0,0,2.122107
-0.0405406,0.016286526,0.03563972,-0.011191388,0.09130622,-0.44127616,0.0,0.0,0,2.079141
-0.040406894,0.015909443,0.035645783,-0.01555241,0.06924309,-0.44126225,0.0,0.0,0,2.041198
-0.04027357,0.015441523,0.03565049,-0.019913515,0.04718062,-0.44124952,0.0,0.0,0,2.008575
-0.040140342,0.014882765,0.03565384,-0.024274677,0.025118778,-0.44123667,0.0,0.0,0,1.980975
-0.04000721,0.014233313,0.035655826,-0.028635878,0.0030576177,-0.44122314,0.0,0.0,0,-1.842730
-0.039874174,0.013493166,0.035656445,-0.032997094,-0.019002791,-0.4412083,0.0,0.0,0,-2.473476
-0.039740942,0.012662325,0.035655696,-0.037358318,-0.04106248,-0.44119358,0.0,0.0,0,-2.489671
-0.039607525,0.011740718,0.035653587,-0.041719515,-0.06312142,-0.4411788,0.0,0.0,0,-2.503522
-0.039473914,0.010728345,0.03565012,-0.046080668,-0.08517963,-0.44116402,0.0,0.0,0,12.450105
-0.039253615,0.010361132,0.025637474,-0.01652948,-0.08874335,-0.07126336,1.0,0.0,0,0.712319
-0.038999368,0.01011251,0.023332946,-0.010930991,-0.08666672,0.041541554,1.0,0.0,0,0.174987
-0.038742162,0.009790573,0.023025243,-0.014156075,-0.08398357,0.05367016,1.0,0.0,0,0.205260
-0.03848181,0.009395251,0.022719657,-0.017390152,-0.08069657,0.06574613,1.0,0.0,0,0.239566
-0.03821831,0.008926329,0.022416657,-0.020635217,-0.076809004,0.077756755,1.0,0.0,0,0.277423
-0.03795185,0.008383665,0.022116758,-0.023893384,-0.07232485,0.089687064,1.0,0.0,0,0.318220
-0.037682343,0.007767007,0.021820383,-0.027166408,-0.067248754,0.10152532,1.0,0.0,0,0.361237
-0.03740988,0.0070761777,0.021527931,-0.030455915,-0.061585866,0.11326047,1.0,0.0,0,0.405827
-0.03713436,0.006310961,0.021239758,-0.03376334,-0.05534185,0.12488242,1.0,0.0,0,0.451381
-0.036855794,0.0054710363,0.020956192,-0.03709003,-0.048522834,0.13638169,1.0,0.0,0,0.497369
-0.036574364,0.0045561884,0.020677526,-0.040437106,-0.041135408,0.14774957,1.0,0.0,0,0.543411
-0.03628979,0.0035660958,0.020404011,-0.043805577,-0.033186503,0.15897883,1.0,0.0,0,0.589087
-0.03600235,0.0025004006,0.020135872,-0.04719628,-0.024683379,0.17006265,1.0,0.0,0,0.634132
-0.035711955,0.0013589597,0.019873297,-0.05060986,-0.01563361,0.18099526,1.0,0.0,0,0.678281
-0.035418607,0.00014123679,0.019616438,-0.05404681,-0.0060450095,0.19177201,1.0,0.0,0,-0.093582
-0.035122395,-0.0011529827,0.01936542,-0.057507515,0.0040744394,0.20238909,1.0,0.0,0,13.484401
-0.03494663,-0.0015528107,0.0143791735,-0.017794164,0.007193438,0.062331147,1.0,1.0,0,0.426591
-0.034845352,-0.0011637473,0.013114909,0.017295511,0.0042159916,-0.059584487,1.0,1.0,0,0.546609
-0.034734152,-0.0008733177,0.013403399,0.012913579,0.001963071,-0.0450587,1.0,1.0,0,0.416983
-0.03461981,-0.00065870525,0.013128711,0.009540293,0.0002954357,-0.033352606,1.0,1.0,0,0.160158
-0.034502126,-0.00051980256,0.012852743,0.006172165,-0.00078494736,-0.021607462,1.0,1.0,0,-9.899779
-0.03438139,-0.0004566455,0.012575941,0.0028074062,-0.0012767968,-0.009837027,1.0,0.0,0,0.079551
-0.034257315,-0.00046916248,0.012298693,-0.00055558543,-0.0011794306,0.0019475349,1.0,0.0,0,0.047993
-0.034130096,-0.0005573535,0.012021406,-0.00391846,-0.00049270084,0.013734629,1.0,0.0,0,-0.133844
-0.033999823,-0.0007212186,0.011744469,-0.0072828573,0.0007829408,0.025512602,1.0,0.0,0,10.445399
-0.03390522,-0.0007229352,0.009460472,-7.542497e-05,0.000782004,-1.8214221e-05,1.0,1.0,0,0.102840
-0.033820055,-0.00072179077,0.008516761,5.0566217e-05,0.00078263675,1.2199286e-05,1.0,1.0,0,0.098206
-0.033743955,-0.00072179077,0.007610921,1.2052575e-06,0.00078265055,2.8917128e-07,1.0,1.0,0,0.098302
-0.033677004,-0.00072179077,0.0066948384,-3.28352e-07,0.00078264385,-7.8147025e-08,1.0,1.0,0,0.097425
-0.033619214,-0.00072179077,0.0057783653,-1.4245051e-08,0.0007826421,-7.665223e-09,1.0,1.0,0,0.096504
-0.033570576,-0.00072179077,0.0048619434,6.6229635e-09,0.0007826482,1.6185178e-10,1.0,1.0,0,0.095590
-0.033531092,-0.00072179077,0.0039455285,6.9400174e-09,0.0007826387,2.196935e-11,1.0,1.0,0,0.094672
-0.03350077,-0.00072179077,0.0030291183,5.5764686e-09,0.00078264385,-4.170727e-09,1.0,1.0,0,0.093758
-0.033479594,-0.00072179077,0.002112708,3.9869756e-09,0.0007826421,6.8609216e-09,1.0,1.0,0,0.092833
-0.033467673,-0.00072179077,0.001196298,2.2850413e-09,0.00078263937,1.7282371e-09,1.0,1.0,0,0.091918
-0.03346491,-0.00072179077,0.00027988767,1.0380897e-09,0.00078263826,1.8329583e-08,1.0,1.0,0,0.006650
-0.033467006,-0.00072179077,-0.00020819248,1.4890642e-08,0.00078573544,6.0482686e-05,1.0,1.0,0,-0.002488
-0.0334692,-0.00072179077,-0.00022746879,1.8048013e-08,0.00078914483,6.608308e-05,1.0,1.0,0,0.014496
-0.033469964,-0.00072179077,-8.054854e-05,6.833443e-09,0.00079034193,2.3402348e-05,1.0,1.0,0,0.005939
-0.033469774,-0.00072179077,2.166631e-05,-1.5955682e-09,0.0007900229,-6.295254e-06,1.0,1.0,0,-0.001779
-0.03346939,-0.00072179077,4.044003e-05,-3.6631187e-09,0.00078942423,-1.1751177e-05,1.0,1.0,0,0.002160
-0.0334692,-0.00072179077,1.9329873e-05,-1.910947e-09,0.0007891213,-5.6126883e-06,1.0,1.0,0,0.001873
-0.0334692,-0.00072179077,-5.824154e-07,1.3202121e-11,0.0007891344,1.8201884e-07,1.0,1.0,0,-0.000630
-0.033469297,-0.00072179077,-6.690088e-06,3.8075332e-10,0.0007892272,1.9444922e-06,1.0,1.0,0,0.000245
-0.033469297,-0.00072179077,-4.1772846e-06,3.4182931e-10,0.0007892871,1.2121634e-06,1.0,1.0,0,0.000362
-0.033469297,-0.00072179077,-5.455536e-07,4.5444537e-11,0.0007892986,1.6987819e-07,1.0,1.0,0,-0.000045
-0.033469297,-0.00072179077,1.0081533e-06,-8.857993e-11,0.00078928587,-2.9997523e-07,1.0,1.0,0,0.000018
-0.033469297,-0.00072179077,8.373614e-07,2.1662672e-11,0.0007892744,-2.4657052e-07,1.0,1.0,0,0.000062
-0.033469297,-0.00072179077,2.194621e-07,1.6912338e-11,0.0007892729,-7.786775e-08,1.0,1.0,0,0.000008
-0.033469297,-0.00072179077,-1.3105333e-07,2.41001e-11,0.00078927854,5.267301e-08,1.0,1.0,0,-0.000003
-0.033469297,-0.00072179077,-1.5874618e-07,-5.2761143e-11,0.00078928407,5.0261672e-08,1.0,1.0,0,0.000009
-0.033469297,-0.00072179077,-6.1417694e-08,6.341246e-11,0.0007892872,1.7954584e-08,1.0,1.0,0,0.000004
-0.033469297,-0.00072179077,1.5836418e-08,-2.6835489e-11,0.00078928843,-2.141098e-08,1.0,1.0,0,-0.000002
-0.033469297,-0.00072179077,3.111048e-08,-6.594942e-11,0.0007892912,-2.0078156e-08,1.0,1.0,0,0.000001
-0.033469297,-0.00072179077,1.8564528e-08,4.2119e-11,0.0007892925,-1.9932893e-08,1.0,1.0,0,0.000001
-0.033469297,-0.00072179077,6.597415e-09,1.3183807e-11,0.0007892938,-2.009865e-08,1.0,1.0,0,-0.000000
-0.033469297,-0.00072179077,-5.4678337e-09,2.2801311e-10,0.00078929676,1.4355599e-08,1.0,1.0,0,-0.000001
-0.033469297,-0.00072179077,-1.0775637e-08,1.3142792e-11,0.00078930176,2.4181821e-08,1.0,1.0,0,100
0.0072597503,1.4171196,0.73532605,0.27551788,-0.008405511,-0.16656223,0.0,0.0,0,-1.230776
0.014519786,1.4232447,0.7343321,0.27216193,-0.016635928,-0.16462287,0.0,0.0,0,-1.289036
0.021780109,1.4292746,0.7343581,0.26786962,-0.024861567,-0.16452824,0.0,0.0,0,-1.283551
0.029040813,1.4352077,0.7343822,0.26354083,-0.033086136,-0.16450658,0.0,0.0,0,-1.279537
0.03630171,1.4410446,0.73440623,0.25921398,-0.041309375,-0.16448025,0.0,0.0,0,-1.275465
0.043562986,1.4467852,0.73443043,0.25488752,-0.049531296,-0.1644536,0.0,0.0,0,-1.271316
0.050824452,1.4524297,0.7344544,0.25056097,-0.057751894,-0.16442743,0.0,0.0,0,-1.267135
0.058086205,1.4579775,0.7344783,0.2462342,-0.065971196,-0.16440108,0.0,0.0,0,-1.262923
0.065348245,1.4634291,0.734502,0.24190715,-0.07418917,-0.16437472,0.0,0.0,0,-1.258690
0.07261066,1.4687842,0.7345256,0.23757988,-0.08240583,-0.16434854,0.0,0.0,0,-1.254454
0.07987337,1.4740431,0.7345491,0.23325238,-0.09062119,-0.16432247,0.0,0.0,0,-1.250186
0.087136365,1.4792055,0.7345724,0.22892466,-0.098835275,-0.16429637,0.0,0.0,0,-1.245911
0.094399646,1.4842716,0.7345956,0.22459671,-0.10704804,-0.16427046,0.0,0.0,0,-1.241600
0.10166321,1.4892414,0.73461854,0.22026853,-0.11525953,-0.16424459,0.0,0.0,0,-1.237272
0.10892715,1.4941146,0.7346414,0.21594013,-0.12346972,-0.1642188,0.0,0.0,0,-1.232965
0.11619139,1.4988916,0.734664,0.21161152,-0.13167861,-0.16419314,0.0,0.0,0,-1.228619
0.123456,1.5035722,0.7346865,0.20728269,-0.13988623,-0.16416755,0.0,0.0,0,-1.224256
0.1307209,1.5081565,0.73470867,0.20295362,-0.14809257,-0.16414206,0.0,0.0,0,-1.219912
0.1379861,1.5126444,0.7347308,0.19862437,-0.15629767,-0.16411667,0.0,0.0,0,-1.215520
0.14525166,1.5170358,0.73475266,0.19429491,-0.16450147,-0.16409136,0.0,0.0,0,-1.211136
0.1525176,1.5213308,0.7347743,0.18996523,-0.17270404,-0.16406618,0.0,0.0,0,-1.206748
0.15978384,1.5255294,0.73479575,0.18563534,-0.18090536,-0.16404106,0.0,0.0,0,-1.202353
0.16705045,1.5296315,0.734817,0.18130523,-0.1891054,-0.16401604,0.0,0.0,0,-1.197971
0.17431736,1.5336373,0.7348381,0.17697494,-0.19730422,-0.16399103,0.0,0.0,0,-1.193562
0.18158475,1.5375466,0.73485905,0.17264444,-0.20550178,-0.16396618,0.0,0.0,0,-1.181584
0.18884459,1.5413511,0.7344977,0.16788027,-0.2141008,-0.17198488,0.0,0.0,0,-1.179115
0.19610938,1.5450468,0.73458827,0.16305558,-0.22229747,-0.1639336,0.0,0.0,0,-1.176941
0.2033743,1.5486461,0.73458636,0.15873006,-0.23049411,-0.1639328,0.0,0.0,0,-1.172679
0.21063939,1.5521492,0.73458445,0.15440455,-0.23869073,-0.1639323,0.0,0.0,0,-1.168417
0.21790466,1.5555559,0.73458254,0.15007904,-0.24688733,-0.16393176,0.0,0.0,0,-1.164135
0.22517005,1.5588663,0.73458046,0.14575356,-0.2550839,-0.16393131,0.0,0.0,0,-1.159875
0.23243551,1.5620804,0.7345784,0.14142807,-0.26328042,-0.16393048,0.0,0.0,0,-1.155602
0.23970118,1.565198,0.7345762,0.13710262,-0.2714769,-0.1639295,0.0,0.0,0,-1.151346
0.24696712,1.5682194,0.73457396,0.13277715,-0.27967334,-0.16392866,0.0,0.0,0,-1.147093
0.25423306,1.5711445,0.7345717,0.12845172,-0.28786972,-0.16392788,0.0,0.0,0,-1.142827
0.26149923,1.5739732,0.73456925,0.12412629,-0.29606608,-0.16392712,0.0,0.0,0,-1.138581
0.26876554,1.5767055,0.7345668,0.11980087,-0.3042624,-0.16392636,0.0,0.0,0,-1.134346
0.27603206,1.5793414,0.7345643,0.11547546,-0.3124587,-0.16392562,0.0,0.0,0,-1.130110
0.28329867,1.581881,0.7345618,0.11115007,-0.32065493,-0.16392487,0.0,0.0,0,-1.125897
0.29056558,1.5843244,0.7345592,0.10682469,-0.32885113,-0.1639241,0.0,0.0,0,-1.121682
0.29783267,1.5866714,0.7345565,0.10249933,-0.3370473,-0.16392335,0.0,0.0,0,-1.117455
0.30509996,1.5889219,0.7345537,0.09817398,-0.34524342,-0.1639226,0.0,0.0,0,-1.113269
0.31236744,1.5910761,0.7345509,0.09384865,-0.3534395,-0.16392182,0.0,0.0,0,-1.109093
0.3196351,1.593134,0.73454803,0.08952333,-0.36163557,-0.16392104,0.0,0.0,0,-1.104898
0.32690305,1.5950954,0.7345451,0.08519803,-0.3698316,-0.1639203,0.0,0.0,0,-1.100734
0.334171,1.5969605,0.734542,0.080872744,-0.37802756,-0.16391954,0.0,0.0,0,-1.096592
0.34143943,1.5987294,0.7345389,0.07654747,-0.38622347,-0.16391881,0.0,0.0,0,-1.092459
0.34870785,1.6004018,0.7345358,0.07222221,-0.39441937,-0.16391803,0.0,0.0,0,-1.088327
0.35597667,1.6019777,0.73453254,0.06789697,-0.40261525,-0.16391729,0.0,0.0,0,-1.084216
0.36324567,1.6034573,0.7345293,0.06357176,-0.41081107,-0.16391654,0.0,0.0,0,-1.080126
0.37051505,1.6048406,0.7345259,0.05924656,-0.41900685,-0.16391578,0.0,0.0,0,-1.076042
0.37778455,1.6061275,0.73452246,0.05492138,-0.4272026,-0.16391504,0.0,0.0,0,-1.071977
0.3850543,1.6073179,0.734519,0.050596222,-0.43539834,-0.16391428,0.0,0.0,0,-1.067926
0.39232436,1.608412,0.7345155,0.04627108,-0.443594,-0.16391356,0.0,0.0,0,-1.063902
0.3995946,1.6094098,0.73451185,0.041945953,-0.45178965,-0.1639128,0.0,0.0,0,-1.059877
0.4068652,1.610311,0.73450816,0.03762085,-0.45998526,-0.16391206,0.0,0.0,0,-1.055892
0.41413593,1.6111159,0.73450446,0.033295773,-0.46818084,-0.1639113,0.0,0.0,0,-1.051915
0.42140704,1.6118245,0.7345007,0.028970713,-0.47637635,-0.16391054,0.0,0.0,0,-1.047944
0.42867842,1.6124365,0.7344969,0.024645673,-0.48457184,-0.16390978,0.0,0.0,0,-1.044014
0.43594998,1.6129522,0.73449296,0.020320654,-0.4927673,-0.16390903,0.0,0.0,0,-1.040106
0.44322196,1.6133715,0.734489,0.015995659,-0.5009628,-0.16390827,0.0,0.0,0,-1.036192
0.4504941,1.6136943,0.734485,0.011670685,-0.50915813,-0.16390753,0.0,0.0,0,-1.032321
0.45776653,1.6139208,0.73448086,0.007345733,-0.5173535,-0.16390672,0.0,0.0,0,-1.028444
0.46503934,1.6140506,0.7344767,0.0030208034,-0.5255487,-0.16390595,0.0,0.0,0,-1.024634
0.47231236,1.6140842,0.73447245,-0.0013041028,-0.5337439,-0.16390519,0.0,0.0,0,-1.020838
0.47958583,1.6140215,0.73446816,-0.0056289863,-0.5419392,-0.16390441,0.0,0.0,0,-1.017041
0.4868595,1.6138622,0.7344639,-0.009953846,-0.5501344,-0.16390368,0.0,0.0,0,-1.013276
0.49413347,1.6136063,0.7344595,-0.014278682,-0.5583296,-0.16390291,0.0,0.0,0,-1.009558
0.5014078,1.6132543,0.734455,-0.018603494,-0.56652474,-0.16390215,0.0,0.0,0,-1.005828
0.5086824,1.6128057,0.73445046,-0.022928279,-0.5747198,-0.16390139,0.0,0.0,0,-1.002139
0.5159575,1.6122606,0.7344459,-0.027253043,-0.5829148,-0.16390064,0.0,0.0,0,-0.998488
0.52323276,1.611619,0.7344413,-0.03157778,-0.5911099,-0.16389987,0.0,0.0,0,-0.994847
0.53050834,1.610881,0.7344366,-0.035902496,-0.5993048,-0.1638991,0.0,0.0,0,-0.991248
0.5377843,1.6100465,0.7344318,-0.040227182,-0.60749966,-0.16389833,0.0,0.0,0,-0.987670
0.5450605,1.6091157,0.7344269,-0.044551842,-0.61569446,-0.16389756,0.0,0.0,0,-0.984141
0.5523373,1.6080883,0.7344221,-0.04887647,-0.6238894,-0.16389683,0.0,0.0,0,-0.980604
0.5596142,1.6069643,0.73441714,-0.05320108,-0.6320842,-0.16389605,0.0,0.0,0,-0.977126
0.56689155,1.605744,0.7344122,-0.05752566,-0.64027894,-0.1638953,0.0,0.0,0,-0.973674
0.5741693,1.6044272,0.7344071,-0.061850213,-0.6484737,-0.16389452,0.0,0.0,0,-0.970254
0.5814474,1.603014,0.73440206,-0.06617474,-0.6566683,-0.16389377,0.0,0.0,0,-0.966847
0.58872575,1.6015041,0.7343969,-0.070499234,-0.664863,-0.16389301,0.0,0.0,0,-0.963493
0.5960046,1.5998977,0.7343916,-0.074823715,-0.6730576,-0.16389222,0.0,0.0,0,-0.960169
0.6032839,1.5981948,0.7343864,-0.07914816,-0.6812522,-0.1638915,0.0,0.0,0,-0.956883
0.61056346,1.5963956,0.7343811,-0.08347257,-0.68944675,-0.16389072,0.0,0.0,0,-0.953637
0.6178433,1.5944998,0.7343758,-0.08779695,-0.69764125,-0.16388996,0.0,0.0,0,-0.950406
0.6251234,1.5925076,0.73437035,-0.09212131,-0.7058357,-0.1638892,0.0,0.0,0,-0.947211
0.63240415,1.5904186,0.73436487,-0.09644563,-0.71403015,-0.16388844,0.0,0.0,0,-0.944080
0.63968545,1.5882332,0.7343594,-0.10076991,-0.72222453,-0.16388766,0.0,0.0,0,-0.940942
0.64696676,1.5859513,0.7343537,-0.10509417,-0.7304188,-0.1638869,0.0,0.0,0,-0.937885
0.6542486,1.5835727,0.7343481,-0.1094184,-0.73861307,-0.16388616,0.0,0.0,0,-0.934878
0.6615311,1.5810978,0.73434246,-0.1137426,-0.74680734,-0.16388537,0.0,0.0,0,-0.931854
0.6688135,1.5785264,0.7343366,-0.11806677,-0.7550015,-0.1638846,0.0,0.0,0,-0.928939
0.67609674,1.5758584,0.73433083,-0.12239092,-0.7631957,-0.16388382,0.0,0.0,0,-0.926014
0.6833801,1.5730935,0.73432505,-0.12671503,-0.7713899,-0.16388306,0.0,0.0,0,-0.923163
0.6906641,1.5702324,0.73431915,-0.13103911,-0.779584,-0.1638823,0.0,0.0,0,-0.920328
0.6979483,1.5672746,0.7343132,-0.13536316,-0.78777814,-0.16388154,0.0,0.0,0,-0.917578
0.7052332,1.5642202,0.7343072,-0.13968717,-0.79597217,-0.1638808,0.0,0.0,0,-0.914839
0.71251833,1.5610693,0.7343012,-0.14401117,-0.80416626,-0.16388004,0.0,0.0,0,-0.912171
0.719804,1.5578219,0.7342952,-0.14833511,-0.8123602,-0.16387929,0.0,0.0,0,-0.909518
0.72709006,1.5544777,0.73428905,-0.15265901,-0.82055414,-0.16387853,0.0,0.0,0,-0.906937
0.73437655,1.5510371,0.73428285,-0.1569829,-0.82874805,-0.16387777,0.0,0.0,0,-0.904404
0.7416636,1.5474999,0.73427653,-0.16130675,-0.8369419,-0.16387701,0.0,0.0,0,-0.901926
0.7489508,1.543866,0.7342703,-0.16563055,-0.84513575,-0.16387624,0.0,0.0,0,-0.899490
0.75623876,1.5401354,0.734264,-0.16995431,-0.8533296,-0.16387549,0.0,0.0,0,-0.897085
0.7635269,1.5363083,0.7342576,-0.17427807,-0.8615233,-0.16387472,0.0,0.0,0,-0.894775
0.7708157,1.5323845,0.73425114,-0.17860177,-0.869717,-0.16387396,0.0,0.0,0,-0.892533
0.77810496,1.5283642,0.7342447,-0.18292543,-0.87791073,-0.16387323,0.0,0.0,0,-0.890288
0.7853945,1.5242472,0.73423827,-0.18724905,-0.88610435,-0.16387247,0.0,0.0,0,-0.888134
0.79268456,1.5200335,0.7342317,-0.19157265,-0.89429796,-0.1638717,0.0,0.0,0,-0.886046
0.7999752,1.5157232,0.73422515,-0.19589622,-0.9024915,-0.16387096,0.0,0.0,0,-0.884002
0.80726624,1.5113162,0.7342185,-0.20021977,-0.91068506,-0.1638702,0.0,0.0,0,-0.882033
0.8145577,1.5068127,0.7342118,-0.20454326,-0.9188786,-0.16386946,0.0,0.0,0,-0.880110
0.82184964,1.5022124,0.7342051,-0.2088667,-0.92707205,-0.1638687,0.0,0.0,0,-0.878254
0.829142,1.4975154,0.7341984,-0.21319012,-0.9352654,-0.16386797,0.0,0.0,0,-0.876485
0.83643496,1.492722,0.7341916,-0.21751352,-0.9434588,-0.16386719,0.0,0.0,0,-0.874751
0.84372824,1.4878318,0.73418474,-0.22183686,-0.9516521,-0.16386643,0.0,0.0,0,-0.873091
0.8510221,1.4828447,0.7341779,-0.22616015,-0.95984536,-0.16386567,0.0,0.0,0,-0.871522
0.8583166,1.4777611,0.7341709,-0.23048343,-0.9680386,-0.16386491,0.0,0.0,0,-0.869995
0.86561143,1.4725808,0.7341639,-0.23480664,-0.97623175,-0.16386417,0.0,0.0,0,-0.868556
0.8729067,1.4673038,0.7341569,-0.23912983,-0.9844249,-0.16386339,0.0,0.0,0,-0.867212
0.88020265,1.46193,0.7341498,-0.24345298,-0.9926181,-0.16386259,0.0,0.0,0,-0.865912
0.88749903,1.4564596,0.7341427,-0.24777609,-1.0008112,-0.16386183,0.0,0.0,0,-0.864682
0.8947958,1.4508926,0.73413557,-0.2520992,-1.0090042,-0.16386107,0.0,0.0,0,-0.863545
0.9020931,1.4452286,0.7341284,-0.25642222,-1.0171973,-0.16386029,0.0,0.0,0,-0.862490
0.90939105,1.4394679,0.7341212,-0.2607452,-1.0253903,-0.16385952,0.0,0.0,0,-0.861516
0.9166895,1.4336106,0.73411393,-0.26506817,-1.0335832,-0.16385877,0.0,0.0,0,-0.860608
0.92398816,1.4276564,0.73410666,-0.26939106,-1.0417761,-0.16385803,0.0,0.0,0,-0.859811
0.9312876,1.4216056,0.7340993,-0.27371392,-1.049969,-0.16385725,0.0,0.0,0,-0.859102
0.93858755,1.4154581,0.73409206,-0.2780367,-1.0581617,-0.16385649,0.0,0.0,0,-0.858460
0.94588816,1.4092138,0.73408467,-0.2823595,-1.0663545,-0.16385573,0.0,0.0,0,-0.857906
0.9531891,1.4028726,0.7340773,-0.28668225,-1.0745473,-0.16385499,0.0,0.0,0,-0.857439
0.9604904,1.3964347,0.7340698,-0.291005,-1.08274,-0.16385424,0.0,0.0,0,-0.857098
0.9677925,1.3899001,0.7340623,-0.29532763,-1.0909326,-0.16385345,0.0,0.0,0,-0.856812
0.975095,1.3832686,0.73405486,-0.29965022,-1.0991253,-0.16385268,0.0,0.0,0,-0.856643
0.98239803,1.3765403,0.7340473,-0.3039728,-1.1073178,-0.1638519,0.0,0.0,0,-0.856575
0.9897016,1.3697152,0.7340398,-0.30829534,-1.1155103,-0.16385114,0.0,0.0,0,-0.856612
0.9970058,1.3627933,0.73403215,-0.31261784,-1.1237029,-0.16385037,0.0,0.0,0,-100
-0.004412842,1.4126325,-0.4469853,0.076087385,0.005120147,0.101248845,0.0,0.0,0,-0.551710
-0.008826065,1.41427,-0.4463807,0.072753884,0.010123282,0.10007276,0.0,0.0,0,-0.591789
-0.013239479,1.415811,-0.4463964,0.06844504,0.015123465,0.100013,0.0,0.0,0,-0.587072
-0.017653083,1.4172549,-0.44641113,0.06411863,0.02012303,0.100000486,0.0,0.0,0,-0.582778
-0.022066783,1.418602,-0.44642583,0.059795152,0.025121806,0.09998472,0.0,0.0,0,-0.578467
-0.026480675,1.4198523,-0.4464406,0.05547174,0.030119793,0.09996883,0.0,0.0,0,-0.574128
-0.030894661,1.4210056,-0.44645524,0.051148243,0.03511699,0.09995319,0.0,0.0,0,-0.569827
-0.035308935,1.422062,-0.44646984,0.04682463,0.040113408,0.099937454,0.0,0.0,0,-0.565542
-0.0397233,1.4230216,-0.44648442,0.04250091,0.04510904,0.099921785,0.0,0.0,0,-0.561244
-0.044137858,1.4238842,-0.44649893,0.03817708,0.050103895,0.0999062,0.0,0.0,0,-0.556977
-0.048552513,1.42465,-0.44651335,0.033853147,0.05509798,0.099890664,0.0,0.0,0,-0.552701
-0.05296736,1.4253187,-0.44652772,0.029529087,0.06009129,0.09987519,0.0,0.0,0,-0.548456
-0.057382394,1.4258907,-0.44654208,0.025204923,0.06508381,0.09985973,0.0,0.0,0,-0.544186
-0.06179762,1.4263654,-0.44655633,0.020880664,0.07007557,0.09984435,0.0,0.0,0,-0.539970
-0.06621294,1.4267435,-0.44657055,0.016556282,0.07506657,0.09982903,0.0,0.0,0,-0.535735
-0.070628546,1.4270246,-0.4465847,0.012231797,0.08005682,0.099813774,0.0,0.0,0,-0.531508
-0.07504425,1.4272089,-0.4465987,0.007907204,0.085046284,0.099798605,0.0,0.0,0,-0.527278
-0.079460144,1.4272959,-0.44661275,0.003582505,0.090035014,0.09978346,0.0,0.0,0,-0.523064
-0.08387613,1.4272863,-0.4466266,-0.00074229576,0.09502298,0.09976838,0.0,0.0,0,-0.518870
-0.088292405,1.4271797,-0.44664043,-0.0050671976,0.100010216,0.099753365,0.0,0.0,0,-0.514656
-0.09270878,1.4269761,-0.44665417,-0.0093921935,0.10499669,0.099738345,0.0,0.0,0,-0.510448
-0.09712534,1.4266756,-0.44666782,-0.01371729,0.10998242,0.09972342,0.0,0.0,0,-0.506247
-0.10154209,1.426278,-0.4466814,-0.01804248,0.114967406,0.09970854,0.0,0.0,0,-0.502059
-0.10595894,1.4257836,-0.4466949,-0.022367766,0.11995165,0.09969376,0.0,0.0,0,-0.497873
-0.110376075,1.4251924,-0.4467083,-0.026693149,0.12493516,0.09967903,0.0,0.0,0,-0.480248
-0.11479139,1.4244827,-0.44654137,-0.031964764,0.12991847,0.09966664,0.0,0.0,0,-0.487014
-0.11920671,1.4236764,-0.44654098,-0.036286823,0.13490179,0.09966651,0.0,0.0,0,-0.482890
-0.123622134,1.422773,-0.4465406,-0.040608883,0.1398851,0.099666245,0.0,0.0,0,-0.478774
-0.12803754,1.4217727,-0.44654018,-0.04493095,0.14486839,0.099665985,0.0,0.0,0,-0.474662
-0.13245296,1.4206758,-0.44653973,-0.049253006,0.14985168,0.099665806,0.0,0.0,0,-0.470546
-0.13686848,1.4194818,-0.4465393,-0.05357506,0.15483494,0.09966559,0.0,0.0,0,-0.466413
-0.14128399,1.418191,-0.44653884,-0.057897117,0.15981822,0.09966542,0.0,0.0,0,-0.462309
-0.14569959,1.4168034,-0.44653836,-0.06221917,0.1648015,0.09966518,0.0,0.0,0,-0.458171
-0.1501152,1.4153187,-0.44653788,-0.066541225,0.16978475,0.09966498,0.0,0.0,0,-0.454041
-0.15453081,1.4137373,-0.4465374,-0.07086327,0.17476799,0.09966482,0.0,0.0,0,-0.449889
-0.15894651,1.4120588,-0.44653684,-0.07518532,0.17975123,0.09966463,0.0,0.0,0,-0.445765
-0.16336222,1.4102838,-0.44653624,-0.079507366,0.18473445,0.099664465,0.0,0.0,0,-0.441633
-0.16777802,1.4084117,-0.44653574,-0.08382942,0.18971768,0.09966429,0.0,0.0,0,-0.437467
-0.17219391,1.4064429,-0.44653517,-0.088151455,0.19470088,0.09966411,0.0,0.0,3,0.889298
-0.17651959,1.4043919,-0.43525124,-0.091509424,0.19739681,0.05391885,0.0,0.0,3,1.185133
-0.18075323,1.4022802,-0.423627,-0.09388857,0.19766606,0.00538474,0.0,0.0,0,0.041792
-0.18498687,1.4000714,-0.423627,-0.098208584,0.19793531,0.0053848885,0.0,0.0,0,0.045937
-0.18922052,1.3977652,-0.42362696,-0.10252859,0.19820458,0.0053851693,0.0,0.0,0,0.050063
-0.19345418,1.3953619,-0.423627,-0.106848605,0.19847386,0.005385445,0.0,0.0,3,1.053320
-0.19761857,1.3928711,-0.41496772,-0.11050458,0.19699374,-0.029602403,0.0,0.0,3,1.313635
-0.20170884,1.3902999,-0.40566802,-0.11383391,0.19361405,-0.06759379,0.0,0.0,3,1.852318
-0.20570306,1.3876636,-0.3935711,-0.11641081,0.18773024,-0.11767632,0.0,0.0,0,0.674860
-0.2096974,1.3849306,-0.39357027,-0.12073365,0.18184644,-0.11767602,0.0,0.0,0,0.678908
-0.21369171,1.3821009,-0.39356947,-0.12505649,0.17596266,-0.117675744,0.0,0.0,3,1.699360
-0.21761784,1.3792049,-0.3849412,-0.1278263,0.16827486,-0.15375583,0.0,0.0,3,1.830960
-0.22147593,1.3762206,-0.3764055,-0.1316001,0.15886739,-0.1881499,0.0,0.0,0,1.038169
-0.22533417,1.3731402,-0.37640363,-0.13592741,0.14945997,-0.18814877,0.0,0.0,0,1.042146
-0.2291925,1.3699639,-0.37640193,-0.14025474,0.14005257,-0.1881476,0.0,0.0,0,1.046156
-0.23305091,1.3666915,-0.37640032,-0.14458208,0.13064526,-0.18814646,0.0,0.0,3,2.080207
-0.23683849,1.3633478,-0.36745027,-0.14766218,0.11939965,-0.22491209,0.0,0.0,3,2.531754
-0.24053378,1.3599195,-0.3558688,-0.15133084,0.10582197,-0.27155367,0.0,0.0,0,1.468189
-0.24422932,1.3563966,-0.35586616,-0.15566616,0.092244454,-0.27155024,0.0,0.0,0,1.472075
-0.24792495,1.3527788,-0.35586384,-0.16000153,0.07866711,-0.27154678,0.0,0.0,0,1.475988
-0.2516207,1.3490663,-0.35586184,-0.16433692,0.06508994,-0.27154332,0.0,0.0,3,2.637942
-0.25523338,1.3452749,-0.3453998,-0.16788676,0.04940319,-0.31373507,0.0,0.0,3,2.644350
-0.25877708,1.3414059,-0.33672294,-0.1714673,0.031967286,-0.34871817,0.0,0.0,0,1.865800
-0.26232094,1.3374437,-0.33672136,-0.17581274,0.014531754,-0.3487109,0.0,0.0,0,1.288927
-0.26586476,1.3333883,-0.3367204,-0.18015818,-0.0029034275,-0.34870356,0.0,0.0,0,-1.613501
-0.26940855,1.3292398,-0.33672014,-0.18450363,-0.020338235,-0.3486963,0.0,0.0,3,-0.962420
-0.27287278,1.3250034,-0.3267498,-0.18866836,-0.03976767,-0.3885886,0.0,0.0,3,-1.161667
-0.27625266,1.3206685,-0.3161865,-0.1933789,-0.061316047,-0.43096772,0.0,0.0,0,-2.020932
-0.27963227,1.3162427,-0.31618935,-0.19773774,-0.082863726,-0.4309539,0.0,0.0,0,-2.017038
-0.28301153,1.3117256,-0.31619343,-0.20209652,-0.10441072,-0.4309401,0.0,0.0,0,-2.013102
-0.2863904,1.3071176,-0.3161988,-0.20645523,-0.12595704,-0.43092626,0.0,0.0,0,-2.009134
-0.2897687,1.3024185,-0.3162054,-0.21081387,-0.14750266,-0.43091244,0.0,0.0,0,-2.005110
-0.29314643,1.2976283,-0.31621325,-0.2151724,-0.16904758,-0.43089867,0.0,0.0,0,-2.001053
-0.29652348,1.2927469,-0.31622237,-0.21953082,-0.19059183,-0.4308849,0.0,0.0,0,-1.996949
-0.29989967,1.2877744,-0.3162327,-0.2238891,-0.21213536,-0.4308711,0.0,0.0,0,-1.992817
-0.30327505,1.2827109,-0.3162443,-0.22824723,-0.23367822,-0.43085733,0.0,0.0,0,-1.988642
-0.3066495,1.2775562,-0.3162571,-0.23260517,-0.25522038,-0.4308436,0.0,0.0,0,-1.984424
-0.31002283,1.2723103,-0.31627113,-0.23696294,-0.27676186,-0.43082985,0.0,0.0,0,-1.980188
-0.31339508,1.2669731,-0.31628636,-0.24132046,-0.29830265,-0.43081608,0.0,0.0,0,-1.975891
-0.31676608,1.2615446,-0.31630278,-0.24567775,-0.31984273,-0.43080235,0.0,0.0,0,-1.971590
-0.32013574,1.2560248,-0.31632042,-0.25003484,-0.34138215,-0.43078852,0.0,0.0,0,-1.967241
-0.32350403,1.2504137,-0.31633922,-0.2543916,-0.36292085,-0.43077478,0.0,0.0,0,-1.962865
-0.32687083,1.2447109,-0.31635925,-0.25874814,-0.3844589,-0.430761,0.0,0.0,0,-1.958474
-0.3302361,1.2389168,-0.31638044,-0.26310438,-0.40599623,-0.43074727,0.0,0.0,2,0.615650
-0.33353505,1.2339326,-0.3091777,-0.22761674,-0.42835662,-0.4472084,0.0,0.0,2,1.774275
-0.33655328,1.2296107,-0.28150335,-0.1984313,-0.45050815,-0.4430309,0.0,0.0,2,1.709928
-0.3393857,1.226321,-0.26246098,-0.15307468,-0.47340217,-0.45788065,0.0,0.0,0,-2.263980
-0.34221587,1.2229406,-0.2624902,-0.15743405,-0.49629536,-0.45786414,0.0,0.0,0,-2.260720
-0.34504384,1.2194688,-0.26252085,-0.16179296,-0.51918775,-0.45784765,0.0,0.0,2,4.072366
-0.34739846,1.2170956,-0.21551721,-0.113265686,-0.5420084,-0.45641255,0.0,0.0,2,3.548420
-0.34930736,1.2158362,-0.17106648,-0.06412145,-0.5649886,-0.45960417,0.0,0.0,0,-2.381654
-0.3512137,1.2144855,-0.1711013,-0.06847914,-0.587968,-0.45958742,0.0,0.0,0,-2.382025
-0.35311738,1.2130435,-0.17113742,-0.0728363,-0.61094654,-0.45957074,0.0,0.0,0,-2.382161
-0.35501838,1.21151,-0.1711748,-0.077192895,-0.63392425,-0.45955402,0.0,0.0,2,2.168959
-0.35649484,1.2104435,-0.1294805,-0.056489673,-0.65635026,-0.44852105,0.0,0.0,2,3.230945
-0.3574974,1.2103964,-0.08211165,-0.011611571,-0.67914045,-0.45580468,0.0,0.0,0,-2.370021
-0.35849714,1.2102575,-0.082152024,-0.015965812,-0.7019298,-0.4557883,0.0,0.0,0,-2.382950
-0.35949382,1.2100266,-0.08219355,-0.02031943,-0.72471833,-0.455772,0.0,0.0,0,-2.395131
-0.36048746,1.2097037,-0.08223622,-0.024672408,-0.7475061,-0.4557557,0.0,0.0,0,-2.406413
-0.3614779,1.2092886,-0.08228002,-0.029024724,-0.77029306,-0.45573944,0.0,0.0,0,-2.416727
-0.3624652,1.2087812,-0.08232489,-0.033376373,-0.79307914,-0.4557232,0.0,0.0,0,-2.426038
-0.36344916,1.2081815,-0.08237083,-0.03772733,-0.8158645,-0.4557069,0.0,0.0,0,-2.434275
-0.36442977,1.2074895,-0.08241781,-0.04207758,-0.83864903,-0.45569062,0.0,0.0,1,-2.730397
-0.36547607,1.2068014,-0.091223374,-0.04070443,-0.8586538,-0.400095,0.0,0.0,1,-2.338429
-0.36656627,1.2060956,-0.09723921,-0.040615227,-0.87660915,-0.3591086,0.0,0.0,1,-2.074797
-0.36769134,1.2053641,-0.102120675,-0.040955223,-0.89278257,-0.32346907,0.0,0.0,1,-2.012728
-0.36887518,1.2046381,-0.10989102,-0.039388977,-0.9062482,-0.26931247,0.0,0.0,0,-1.457445
-0.37005773,1.2038164,-0.10990888,-0.04371846,-0.9197137,-0.2693091,0.0,0.0,0,-1.462025
-0.37123895,1.202899,-0.10992692,-0.048047785,-0.93317896,-0.26930574,0.0,0.0,0,-1.466064
-0.37241894,1.2018857,-0.10994514,-0.05237694,-0.94664407,-0.26930234,0.0,0.0,0,-1.469517
-0.37359756,1.2007766,-0.10996355,-0.056705937,-0.960109,-0.269299,0.0,0.0,1,-1.475130
-0.37481695,1.1996799,-0.11566287,-0.054782987,-0.9709873,-0.21756694,0.0,0.0,1,-1.301773
-0.37607464,1.1985631,-0.12070569,-0.05460473,-0.97989357,-0.17812493,0.0,0.0,1,-1.145545
-0.3773814,1.1974419,-0.12702587,-0.053474374,-0.98638606,-0.12984996,0.0,0.0,1,-0.821408
-0.3787318,1.1963317,-0.13288027,-0.051520858,-0.9902561,-0.0774004,0.0,0.0,0,-0.474754
-0.38008204,1.1951246,-0.13288184,-0.055841554,-0.9941261,-0.077400334,0.0,0.0,0,-0.476708
-0.3814322,1.1938204,-0.13288341,-0.060162243,-0.9979961,-0.07740028,0.0,0.0,0,-0.478300
-0.38278222,1.192419,-0.132885,-0.064482935,-1.001866,-0.0774002,0.0,0.0,0,-0.479524
-0.38413215,1.1909204,-0.13288657,-0.068803616,-1.0057361,-0.07740014,0.0,0.0,1,-0.541069
-0.38551855,1.1893988,-0.13757178,-0.068759,-1.0077124,-0.039525084,0.0,0.0,1,-0.287142
-0.38695082,1.1878976,-0.1436947,-0.0662246,-1.0068458,0.01733159,0.0,0.0,0,0.008506
-0.38838306,1.1862991,-0.14369479,-0.07054462,-1.0059793,0.01733157,0.0,0.0,0,0.008061
-0.38981533,1.1846036,-0.14369485,-0.07486466,-1.0051128,0.017331552,0.0,0.0,0,0.007939
-0.39124757,1.1828108,-0.14369492,-0.07918469,-1.0042462,0.017331557,0.0,0.0,0,0.008145
-0.39267978,1.1809208,-0.14369503,-0.08350473,-1.0033797,0.017331567,0.0,0.0,0,0.008671
-0.39411202,1.1789336,-0.14369509,-0.087824754,-1.0025132,0.017331563,0.0,0.0,0,0.009477
-0.39554423,1.1768494,-0.14369518,-0.09214478,-1.0016466,0.017331548,0.0,0.0,1,0.041395
-0.39700693,1.1747397,-0.1477153,-0.09225642,-0.9990079,0.05277426,0.0,0.0,1,0.271925
-0.39851147,1.172643,-0.15335384,-0.09020252,-0.99373436,0.105470285,0.0,0.0,0,0.463292
-0.40001577,1.170449,-0.15335678,-0.09452379,-0.98846084,0.1054701,0.0,0.0,0,0.464600
-0.40151986,1.1681583,-0.1533597,-0.09884507,-0.9831873,0.105469905,0.0,0.0,0,0.466163
-0.40302372,1.1657704,-0.1533626,-0.10316636,-0.97791386,0.1054697,0.0,0.0,1,0.549235
-0.40456662,1.1633852,-0.15865554,-0.10171655,-0.9702413,0.15345143,0.0,0.0,1,0.723117
-0.40614152,1.1609753,-0.16294125,-0.101843804,-0.96077764,0.18927279,0.0,0.0,1,0.919251
-0.40774745,1.1585453,-0.16720523,-0.10175944,-0.9494615,0.22632201,0.0,0.0,0,1.086920
-0.40935245,1.156019,-0.16721837,-0.10608566,-0.9381455,0.22632003,0.0,0.0,0,1.088844
-0.41095656,1.1533964,-0.16723141,-0.11041197,-0.92682964,0.22631805,0.0,0.0,0,1.090968
-0.4125598,1.1506777,-0.16724434,-0.11473838,-0.9155139,0.22631606,0.0,0.0,0,1.093310
-0.414162,1.1478629,-0.16725717,-0.1190649,-0.90419817,0.2263141,0.0,0.0,0,1.095838
-0.41576338,1.1449519,-0.16726989,-0.12339151,-0.89288265,0.22631209,0.0,0.0,0,1.098575
-0.41736382,1.1419449,-0.16728249,-0.12771821,-0.8815672,0.2263101,0.0,0.0,0,1.101494
-0.41896343,1.1388416,-0.16729498,-0.132045,-0.87025183,0.2263081,0.0,0.0,0,1.104608
-0.42056218,1.1356423,-0.16730735,-0.1363719,-0.8589365,0.22630613,0.0,0.0,0,1.107883
-0.42216,1.1323469,-0.16731963,-0.14069887,-0.8476213,0.22630413,0.0,0.0,0,1.111314
-0.42375702,1.1289554,-0.16733176,-0.14502595,-0.8363063,0.22630207,0.0,0.0,0,1.114923
-0.42535323,1.1254678,-0.16734377,-0.14935312,-0.82499135,0.22630005,0.0,0.0,0,1.118680
-0.4269486,1.1218842,-0.16735564,-0.15368037,-0.8136765,0.22629805,0.0,0.0,0,1.122586
-0.4285431,1.1182046,-0.1673674,-0.1580077,-0.80236167,0.22629607,0.0,0.0,0,1.126621
-0.43013683,1.1144291,-0.16737902,-0.16233513,-0.791047,0.22629407,0.0,0.0,0,1.130807
-0.4317297,1.1105574,-0.16739054,-0.16666263,-0.7797324,0.22629204,0.0,0.0,2,9.144439
-0.43256387,1.1076012,-0.09182899,-0.12590234,-0.76811844,0.23227914,0.0,0.0,2,7.470191
-0.432624,1.105419,-0.015040669,-0.09123116,-0.7557974,0.24642098,0.0,0.0,0,1.014398
-0.43268323,1.1031412,-0.015053848,-0.0955604,-0.74347645,0.24641833,0.0,0.0,0,1.022798
-0.43274158,1.1007677,-0.0150668565,-0.09988973,-0.73115563,0.24641573,0.0,0.0,0,1.031243
-0.43279895,1.0982985,-0.01507969,-0.104219176,-0.718835,0.24641316,0.0,0.0,2,4.415805
-0.43227282,1.0968978,0.04343467,-0.05695419,-0.70685095,0.23968276,0.0,0.0,2,-1.643148
-0.4312354,1.0961335,0.0942149,-0.028607218,-0.694538,0.24625878,0.0,0.0,0,1.216086
-0.43019706,1.0952733,0.094202615,-0.03293695,-0.68222517,0.2462562,0.0,0.0,0,1.208187
-0.4291579,1.0943174,0.09419049,-0.037266787,-0.66991246,0.24625364,0.0,0.0,0,1.201009
-0.42811793,1.093266,0.09417857,-0.041596718,-0.6575999,0.24625108,0.0,0.0,2,-2.035550
-0.4266904,1.0927467,0.13265195,-0.017940082,-0.6450551,0.25089797,0.0,0.0,2,-2.985035
-0.42487797,1.093163,0.17144665,0.023366679,-0.6330034,0.24103367,0.0,0.0,0,1.295031
-0.42306477,1.0934837,0.17143574,0.019036885,-0.62095183,0.24103126,0.0,0.0,0,1.292948
-0.42125088,1.0937088,0.17142504,0.014707006,-0.60890037,0.24102883,0.0,0.0,0,1.290791
-0.41943622,1.0938382,0.17141451,0.01037704,-0.596849,0.2410264,0.0,0.0,0,1.288582
-0.41762084,1.0938721,0.17140415,0.0060469923,-0.5847978,0.24102399,0.0,0.0,0,1.286347
-0.4158047,1.0938104,0.17139399,0.0017168602,-0.5727467,0.24102159,0.0,0.0,0,1.284101
-0.41398793,1.0936532,0.171384,-0.0026133512,-0.5606957,0.24101917,0.0,0.0,0,1.281864
-0.41217047,1.0934005,0.1713742,-0.006943642,-0.5486449,0.24101675,0.0,0.0,0,1.279672
-0.4103523,1.0930521,0.17136459,-0.011274011,-0.53659415,0.24101436,0.0,0.0,0,1.277519
-0.40853348,1.0926082,0.17135517,-0.015604457,-0.5245436,0.24101195,0.0,0.0,0,1.275463
-0.40671402,1.0920687,0.17134593,-0.019934978,-0.51249313,0.24100952,0.0,0.0,3,0.285398
-0.40483648,1.0913774,0.17874664,-0.02737485,-0.5023122,0.2036185,0.0,0.0,3,-0.064841
-0.4028882,1.090542,0.18760501,-0.034512423,-0.49419802,0.16228294,0.0,0.0,3,-0.567421
-0.40085125,1.0895478,0.1987844,-0.042433932,-0.4886997,0.1099665,0.0,0.0,0,0.628015
-0.39881414,1.0884569,0.19878261,-0.04675617,-0.48320138,0.10996628,0.0,0.0,0,0.628251
-0.39677697,1.087269,0.19878083,-0.05107842,-0.4777031,0.10996604,0.0,0.0,0,0.628620
-0.39473963,1.0859842,0.19877908,-0.055400673,-0.4722048,0.1099658,0.0,0.0,0,0.629152
-0.39270216,1.0846025,0.19877735,-0.059722934,-0.4667065,0.10996556,0.0,0.0,0,0.629794
-0.39066464,1.0831242,0.19877562,-0.0640452,-0.46120825,0.109965324,0.0,0.0,3,-0.306186
-0.3885719,1.0815045,0.20580204,-0.07084487,-0.45738703,0.07642471,0.0,0.0,3,-0.981910
-0.38638932,1.0797328,0.21712044,-0.07836963,-0.45613372,0.025066394,0.0,0.0,0,0.224520
-0.3842067,1.0778639,0.21712033,-0.082689755,-0.4548804,0.025066439,0.0,0.0,0,0.226493
-0.38202414,1.0758978,0.21712025,-0.08700988,-0.45362705,0.025066445,0.0,0.0,0,0.228601
-0.3798415,1.0738347,0.21712017,-0.09133,-0.45237374,0.025066426,0.0,0.0,0,0.230863
-0.37765893,1.0716742,0.2171201,-0.095650114,-0.45112044,0.025066411,0.0,0.0,0,0.233299
-0.3754763,1.0694166,0.21712,-0.099970244,-0.44986713,0.025066322,0.0,0.0,0,0.235872
-0.3732937,1.0670619,0.21711993,-0.10429036,-0.44861382,0.025066298,0.0,0.0,0,0.238618
-0.37111107,1.0646098,0.21711984,-0.10861047,-0.44736052,0.025066298,0.0,0.0,0,0.241488
-0.36892843,1.0620608,0.21711977,-0.1129306,-0.4461072,0.025066268,0.0,0.0,0,0.244545
-0.3667458,1.0594145,0.2171197,-0.117250726,-0.4448539,0.025066257,0.0,0.0,0,0.247761
-0.36456314,1.0566709,0.2171196,-0.12157085,-0.4436006,0.02506628,0.0,0.0,0,0.251110
-0.3623805,1.0538301,0.21711953,-0.12589097,-0.4423473,0.025066232,0.0,0.0,0,0.254620
-0.36019784,1.0508924,0.21711943,-0.13021109,-0.44109398,0.025066242,0.0,0.0,0,0.258279
-0.35801515,1.0478574,0.21711934,-0.1345312,-0.43984067,0.025066245,0.0,0.0,0,0.262098
-0.3558325,1.0447252,0.21711926,-0.13885131,-0.43858737,0.025066251,0.0,0.0,0,0.266070
-0.3536498,1.0414956,0.21711917,-0.14317141,-0.43733406,0.025066227,0.0,0.0,0,0.270156
-0.35146713,1.0381691,0.2171191,-0.14749154,-0.43608075,0.025066216,0.0,0.0,0,0.274419
-0.3492844,1.0347453,0.21711901,-0.15181167,-0.43482745,0.025066212,0.0,0.0,0,0.278803
-0.34710175,1.0312244,0.21711893,-0.1561318,-0.43357414,0.025066206,0.0,0.0,0,0.283346
-0.34491903,1.0276062,0.21711883,-0.16045193,-0.43232083,0.025066206,0.0,0.0,0,0.288006
-0.3427363,1.0238909,0.21711874,-0.16477208,-0.43106753,0.025066227,0.0,0.0,0,0.292805
-0.34055358,1.0200784,0.21711862,-0.1690922,-0.42981422,0.02506623,0.0,0.0,0,0.297741
-0.33837086,1.0161687,0.21711853,-0.17341231,-0.4285609,0.025066236,0.0,0.0,0,0.302791
-0.33618814,1.0121619,0.21711846,-0.17773242,-0.4273076,0.025066236,0.0,0.0,0,0.307970
-0.33400536,1.0080578,0.21711835,-0.18205254,-0.4260543,0.025066247,0.0,0.0,0,0.313277
-0.33182263,1.0038565,0.2171183,-0.18637265,-0.424801,0.025066238,0.0,0.0,0,0.318694
-0.32963985,0.99955815,0.21711819,-0.1906928,-0.4235477,0.025066242,0.0,0.0,0,0.324224
-0.3274571,0.99516267,0.21711811,-0.1950129,-0.42229438,0.02506623,0.0,0.0,0,0.329879
-0.32527432,0.99066985,0.21711805,-0.19933301,-0.42104107,0.025066119,0.0,0.0,0,0.335630
-0.32309157,0.9860799,0.21711798,-0.20365313,-0.41978776,0.025066143,0.0,0.0,0,0.341487
-0.32090878,0.9813928,0.2171179,-0.20797324,-0.41853446,0.025066141,0.0,0.0,0,0.347457
-0.318726,0.97660846,0.21711783,-0.21229339,-0.41728115,0.025066119,0.0,0.0,0,0.353519
-0.3165432,0.971727,0.21711776,-0.21661352,-0.41602784,0.025066104,0.0,0.0,0,0.359687
-0.31436044,0.96674824,0.2171177,-0.22093365,-0.41477454,0.025066083,0.0,0.0,0,0.365926
-0.3121776,0.9616725,0.21711762,-0.22525376,-0.41352123,0.025066068,0.0,0.0,0,0.372294
-0.3099948,0.95649934,0.21711755,-0.22957388,-0.41226792,0.025066102,0.0,0.0,0,0.378710
-0.30781198,0.9512292,0.21711747,-0.23389398,-0.41101462,0.025066242,0.0,0.0,0,0.385239
-0.30562916,0.94586176,0.2171174,-0.23821409,-0.4097613,0.02506626,0.0,0.0,0,0.391838
-0.3034463,0.9403972,0.21711734,-0.2425342,-0.408508,0.025066262,0.0,0.0,0,0.398527
-0.30126348,0.9348354,0.21711726,-0.24685434,-0.4072547,0.025066262,0.0,0.0,0,0.405284
-0.2990806,0.92917645,0.21711719,-0.25117448,-0.4060014,0.025066236,0.0,0.0,0,0.412114
-0.2968978,0.92342037,0.21711712,-0.25549456,-0.40474808,0.025066245,0.0,0.0,0,0.419032
-0.29471493,0.91756696,0.21711704,-0.25981468,-0.40349478,0.025066257,0.0,0.0,0,0.426004
-0.29253206,0.9116165,0.21711698,-0.26413482,-0.40224147,0.025066216,0.0,0.0,3,-0.842948
-0.29026222,0.90550035,0.22823758,-0.27218622,-0.4035897,-0.026964549,0.0,0.0,0,0.194032
-0.28799242,0.89928705,0.22823748,-0.27650633,-0.40493792,-0.02696454,0.0,0.0,0,0.201181
-0.28572258,0.89297646,0.22823736,-0.28082648,-0.40628615,-0.026964549,0.0,0.0,0,0.208375
-0.28345275,0.8865688,0.22823727,-0.2851466,-0.40763438,-0.026964566,0.0,0.0,0,0.215624
-0.28118291,0.88006395,0.2282372,-0.28946674,-0.4089826,-0.02696458,0.0,0.0,0,0.222949
-0.27891308,0.8734619,0.2282371,-0.29378685,-0.41033083,-0.026964586,0.0,0.0,0,0.230315
-0.2766432,0.86676264,0.22823699,-0.29810697,-0.41167906,-0.026964435,0.0,0.0,0,0.237741
-0.27437335,0.85996616,0.22823687,-0.30242708,-0.4130273,-0.02696446,0.0,0.0,0,0.245189
-0.27210346,0.85307264,0.2282368,-0.30674723,-0.4143755,-0.026964441,0.0,0.0,0,0.252714
-0.26983356,0.8460819,0.22823672,-0.3110674,-0.41572374,-0.026964445,0.0,0.0,0,0.260281
-0.26756367,0.83899397,0.22823663,-0.31538752,-0.41707197,-0.026964417,0.0,0.0,0,0.267899
-0.26529378,0.8318088,0.22823656,-0.3197076,-0.4184202,-0.026964426,0.0,0.0,0,0.275553
-0.26302385,0.8245265,0.22823644,-0.32402772,-0.41976842,-0.026964372,0.0,0.0,0,0.283242
-0.26075396,0.8171471,0.22823635,-0.32834783,-0.42111665,-0.02696437,0.0,0.0,3,-0.497072
-0.25842148,0.8096413,0.236069,-0.33443347,-0.4241687,-0.061040916,0.0,0.0,3,-0.931401
-0.25601012,0.80198663,0.246052,-0.3416949,-0.42950007,-0.10662758,0.0,0.0,3,-0.814798
-0.25354418,0.79420125,0.2529382,-0.34797153,-0.43639287,-0.13785608,0.0,0.0,0,-0.213740
-0.25107807,0.78631926,0.2529357,-0.35229513,-0.4432856,-0.13785563,0.0,0.0,0,-0.205990
-0.24861173,0.7783406,0.25293317,-0.35661876,-0.45017838,-0.13785517,0.0,0.0,0,-0.198217
-0.2461453,0.77026534,0.2529306,-0.36094233,-0.45707113,-0.13785473,0.0,0.0,0,-0.190408
-0.24367861,0.76209354,0.25292802,-0.3652659,-0.46396384,-0.13785431,0.0,0.0,0,-0.182540
-0.24121174,0.7538249,0.25292534,-0.36958948,-0.47085652,-0.13785382,0.0,0.0,0,-0.174682
-0.23874469,0.74545985,0.25292265,-0.37391302,-0.47774917,-0.13785341,0.0,0.0,0,-0.166767
-0.23627743,0.7369981,0.2529199,-0.37823656,-0.4846418,-0.13785294,0.0,0.0,0,-0.158828
-0.23380995,0.7284396,0.25291717,-0.38256007,-0.49153438,-0.13785252,0.0,0.0,0,-0.150865
-0.23134232,0.71978444,0.25291437,-0.3868836,-0.49842697,-0.13785206,0.0,0.0,0,-0.142872
-0.22887444,0.71103257,0.25291154,-0.39120707,-0.50531954,-0.13785163,0.0,0.0,0,-0.134872
-0.22640638,0.70218414,0.25290865,-0.39553055,-0.5122121,-0.13785118,0.0,0.0,0,-0.126839
-0.22393814,0.69323903,0.25290576,-0.39985403,-0.51910466,-0.13785075,0.0,0.0,0,-0.118777
-0.22146964,0.6841972,0.2529028,-0.40417752,-0.52599716,-0.13785031,0.0,0.0,0,-0.110713
-0.21900097,0.6750588,0.25289983,-0.40850097,-0.53288966,-0.13784988,0.0,0.0,0,-0.102614
-0.21653208,0.6658237,0.25289682,-0.41282442,-0.5397821,-0.13784942,0.0,0.0,0,-0.094517
-0.21406293,0.65649205,0.25289375,-0.41714785,-0.54667455,-0.137849,0.0,0.0,0,-0.086376
-0.21159363,0.64706355,0.25289068,-0.42147124,-0.553567,-0.1378486,0.0,0.0,0,-0.078245
-0.20912409,0.6375385,0.25288755,-0.42579463,-0.5604594,-0.13784815,0.0,0.0,0,-0.070103
-0.20665427,0.6279169,0.2528844,-0.430118,-0.56735176,-0.1378477,0.0,0.0,0,-0.061932
-0.20418414,0.6181984,0.25288123,-0.4344414,-0.57424414,-0.13784727,0.0,0.0,0,-0.053767
-0.20171389,0.60838336,0.252878,-0.4387647,-0.58113647,-0.1378468,0.0,0.0,0,-0.045596
-0.19924335,0.5984717,0.25287473,-0.44308802,-0.5880288,-0.13784637,0.0,0.0,0,-0.037412
-0.19677266,0.5884633,0.25287142,-0.44741136,-0.5949211,-0.13784587,0.0,0.0,0,-0.029227
-0.1943017,0.57835823,0.2528681,-0.45173463,-0.6018134,-0.13784544,0.0,0.0,0,-0.021046
-0.19183044,0.5681565,0.2528647,-0.45605797,-0.60870564,-0.13784502,0.0,0.0,2,0.222493
-0.18911524,0.5583258,0.27715605,-0.43954924,-0.61549807,-0.13584884,0.0,0.0,2,1.133752
-0.18588276,0.54970235,0.32915425,-0.3860699,-0.62266004,-0.14324033,0.0,0.0,2,-1.737460
-0.18202,0.5419335,0.39161676,-0.34785876,-0.6291661,-0.13012128,0.0,0.0,0,-0.069929
-0.17815705,0.53406775,0.39161366,-0.35218158,-0.63567215,-0.1301209,0.0,0.0,0,-0.062943
-0.1742938,0.5261052,0.39161053,-0.35650444,-0.6421782,-0.13012053,0.0,0.0,0,-0.055933
-0.17043047,0.5180461,0.39160737,-0.36082727,-0.6486842,-0.13012013,0.0,0.0,0,-0.048852
-0.16656676,0.5098901,0.3916042,-0.3651501,-0.65519017,-0.13011974,0.0,0.0,0,-0.041754
-0.16270295,0.5016374,0.39160094,-0.3694729,-0.66169614,-0.13011935,0.0,0.0,0,-0.034610
-0.15883875,0.49328792,0.3915977,-0.37379566,-0.6682021,-0.130119,0.0,0.0,2,-2.170513
-0.15443353,0.4856028,0.44528332,-0.3440781,-0.67419887,-0.11993567,0.0,0.0,2,-2.110933
-0.14952631,0.47875115,0.49544483,-0.30704892,-0.68017364,-0.11949517,0.0,0.0,0,-0.017213
-0.1446188,0.4718026,0.495442,-0.31137127,-0.6861484,-0.11949487,0.0,0.0,0,-0.011650
-0.1397111,0.46475717,0.4954392,-0.31569353,-0.6921232,-0.11949457,0.0,0.0,0,-0.006088
-0.1348032,0.457615,0.49543634,-0.32001585,-0.6980979,-0.11949432,0.0,0.0,0,-0.000525
-0.12989512,0.45037594,0.49543342,-0.3243381,-0.7040726,-0.119494,0.0,0.0,0,0.005018
-0.12498684,0.44304007,0.49543056,-0.32866043,-0.7100473,-0.11949371,0.0,0.0,1,0.971396
-0.12012901,0.43568373,0.4887814,-0.32866722,-0.7139499,-0.078051925,0.0,0.0,1,1.375218
-0.11533575,0.42831296,0.48043847,-0.3282393,-0.71541566,-0.0293142,0.0,0.0,1,1.304948
-0.11059389,0.42089862,0.47396904,-0.32939723,-0.71512055,0.0059014866,0.0,0.0,0,0.628053
-0.10585193,0.41338706,0.47396898,-0.33371723,-0.71482545,0.0059015113,0.0,0.0,0,0.633581
-0.10110998,0.40577832,0.47396898,-0.3380372,-0.71453035,0.0059015932,0.0,0.0,1,1.942518
-0.09643879,0.39816943,0.46478134,-0.33682522,-0.71147627,0.06108188,0.0,0.0,1,1.790297
-0.09181471,0.3905325,0.45860377,-0.3372378,-0.70652133,0.09909832,0.0,0.0,1,2.212931
-0.08724928,0.38288686,0.45086354,-0.33659738,-0.69917077,0.14701113,0.0,0.0,1,2.342676
-0.08273916,0.37521973,0.443616,-0.33664906,-0.6896716,0.18998338,0.0,0.0,0,1.542174
-0.07822867,0.3674565,0.4436087,-0.34097487,-0.68017244,0.1899822,0.0,0.0,0,1.547418
-0.073717594,0.3595969,0.44360152,-0.34530073,-0.6706734,0.18998101,0.0,0.0,1,2.548249
-0.06926479,0.35170728,0.43607154,-0.34582326,-0.6591015,0.2314372,0.0,0.0,1,2.746634
-0.064864635,0.34379876,0.42900044,-0.34587723,-0.6454227,0.2735761,0.0,0.0,1,3.269448
-0.06053705,0.3358889,0.41940755,-0.3449496,-0.6290163,0.32812798,0.0,0.0,0,2.228845
-0.056208134,0.32788482,0.41938743,-0.3492878,-0.61261016,0.3281219,0.0,0.0,0,2.233496
-0.051877785,0.31978643,0.4193677,-0.3536262,-0.5962044,0.32811585,0.0,0.0,1,3.233988
-0.04760494,0.3116619,0.41171512,-0.3541693,-0.57772875,0.36951277,0.0,0.0,1,3.414532
-0.0433918,0.30350226,0.40382084,-0.35520187,-0.5572502,0.40957054,0.0,0.0,1,3.442561
-0.03923149,0.29529142,0.39688057,-0.35714906,-0.53511786,0.44264618,0.0,0.0,0,2.799463
-0.035069086,0.28698894,0.39684856,-0.36150423,-0.5129863,0.44263119,0.0,0.0,0,2.803055
-0.03090458,0.27859497,0.3968177,-0.36585984,-0.4908555,0.44261628,0.0,0.0,0,2.806363
-0.026738072,0.27010962,0.39678806,-0.3702159,-0.4687254,0.4426013,0.0,0.0,0,2.809363
-0.022569561,0.26153284,0.39675963,-0.37457237,-0.4465961,0.44258636,0.0,0.0,0,2.811989
-0.018399239,0.25286466,0.39673242,-0.37892926,-0.4244675,0.4425714,0.0,0.0,2,3.232190
-0.013946819,0.24510685,0.42480874,-0.33879533,-0.40243125,0.44072446,0.0,0.0,2,3.823318
-0.009421158,0.23806272,0.43256694,-0.30754614,-0.38106358,0.42735347,0.0,0.0,2,1.938435
-0.0046850205,0.23147257,0.4531847,-0.28759202,-0.35942534,0.43276483,0.0,0.0,0,2.603737
5.2642823e-05,0.22479108,0.45316344,-0.2919487,-0.3377878,0.4327508,0.0,0.0,0,2.600176
0.004791641,0.21801825,0.45314336,-0.29630566,-0.316151,0.43273678,0.0,0.0,0,2.595672
0.00953207,0.21115416,0.45312446,-0.30066288,-0.2945149,0.4327228,0.0,0.0,2,1.410568
0.014624691,0.20509817,0.48750097,-0.26491442,-0.27213043,0.44768915,0.0,0.0,2,2.108613
0.020011997,0.2002857,0.51664007,-0.20993648,-0.24954566,0.4516952,0.0,0.0,0,2.519894
0.025400544,0.1953827,0.51662344,-0.2142979,-0.2269617,0.45167947,0.0,0.0,0,2.507565
0.030789947,0.19038907,0.51660836,-0.21865956,-0.20437852,0.45166358,0.0,0.0,0,2.493923
0.036180306,0.1853049,0.51659465,-0.22302142,-0.18179612,0.4516476,0.0,0.0,2,3.205902
0.04166794,0.18148163,0.526533,-0.1673461,-0.15953034,0.44531584,0.0,0.0,2,0.488257
0.047461223,0.17873341,0.55620563,-0.119826846,-0.13644397,0.46172705,0.0,0.0,0,2.330738
0.05325508,0.17589499,0.5561958,-0.12419116,-0.11335845,0.46171013,0.0,0.0,0,2.313770
0.059049416,0.17296644,0.5561875,-0.1285556,-0.09027378,0.4616931,0.0,0.0,2,1.947413
0.06492414,0.17085987,0.56404936,-0.092375636,-0.067076266,0.46395016,0.0,0.0,2,1.242185
0.07091741,0.16944101,0.57547104,-0.0621591,-0.043495625,0.47161278,0.0,0.0,0,2.207483
0.076910876,0.16793247,0.57546717,-0.066525765,-0.019915892,0.47159475,0.0,0.0,0,1.459446
0.08290434,0.16633402,0.57546496,-0.07089247,0.0036629408,0.4715767,0.0,0.0,0,-2.539015
0.0888978,0.1646458,0.5754644,-0.0752592,0.027240861,0.47155863,0.0,0.0,1,-1.716315
0.09480391,0.1628676,0.5645217,-0.079707645,0.053009544,0.51537365,0.0,0.0,1,-1.938647
0.10062084,0.1609927,0.55337584,-0.0845699,0.081016414,0.5601377,0.0,0.0,1,-2.087071
0.106338695,0.1590176,0.54104215,-0.089732006,0.11150876,0.60984683,0.0,0.0,0,-3.279396
0.11205568,0.15695752,0.5410535,-0.09412979,0.14199914,0.6098077,0.0,0.0,0,-3.293862
0.11777143,0.15481247,0.5410684,-0.09852732,0.17248757,0.60976875,0.0,0.0,1,-2.412251
0.12338982,0.15256721,0.5290494,-0.10392863,0.20541386,0.6585263,0.0,0.0,1,-2.937663
0.12893572,0.15020794,0.5202032,-0.11000727,0.24020587,0.6958404,0.0,0.0,1,-3.050171
0.13439827,0.14772879,0.5100478,-0.11652654,0.27716583,0.73919964,0.0,0.0,1,-3.316785
0.13978128,0.14514364,0.50052243,-0.12253437,0.31612846,0.77925307,0.0,0.0,0,-4.198059
0.14516,0.14248052,0.5005785,-0.12697645,0.355087,0.7791716,0.0,0.0,0,-4.211981
0.15053396,0.13973917,0.50064164,-0.13141698,0.39404148,0.77909017,0.0,0.0,0,-4.225783
0.15590267,0.13691913,0.5007118,-0.13585576,0.4329919,0.77900875,0.0,0.0,0,-4.239466
0.16126585,0.1340202,0.5007888,-0.14029263,0.4719382,0.77892727,0.0,0.0,0,-4.252995
0.16662273,0.13104208,0.5008725,-0.14472741,0.5108805,0.77884597,0.0,0.0,2,0.197668
0.17159948,0.1290438,0.46352068,-0.102096826,0.54990816,0.78055394,0.0,0.0,2,1.414405
0.17605305,0.12816726,0.4120992,-0.053085096,0.5888327,0.7784912,0.0,0.0,0,-4.266865
0.18049917,0.12721017,0.41220236,-0.057512496,0.62775314,0.77841,0.0,0.0,0,-4.271468
0.18493728,0.1261722,0.41231173,-0.061937127,0.66666955,0.7783288,0.0,0.0,0,-4.276014
0.18936701,0.12505288,0.4124271,-0.066358835,0.70558184,0.77824765,0.0,0.0,2,0.357905
0.19333048,0.1244676,0.36708635,-0.043228038,0.74411106,0.7705858,0.0,0.0,2,2.865653
0.19657937,0.12466594,0.29705685,-0.0088525675,0.7820441,0.7586625,0.0,0.0,2,1.198187
0.19924346,0.12573875,0.23948352,0.029226186,0.82016575,0.7624335,0.0,0.0,2,1.661071
0.20122166,0.12744398,0.17230688,0.056927685,0.8577646,0.7519773,0.0,0.0,2,-2.726228
0.20293817,0.12958117,0.14693776,0.07527474,0.8958021,0.76074964,0.0,0.0,2,-3.754951
0.20443097,0.1322204,0.12524346,0.09654321,0.93463135,0.7765852,0.0,0.0,2,-3.745411
0.2054244,0.13562687,0.07609266,0.12961139,0.9742278,0.7919289,0.0,0.0,2,-6.659758
0.20565958,0.13998643,0.0011985503,0.17096753,1.0145277,0.80599755,0.0,0.0,2,-6.537615
0.2054513,0.14469416,-0.041803263,0.18581654,1.054906,0.8075665,0.0,0.0,2,-8.128885
0.2047553,0.14989644,-0.089348026,0.20697032,1.095754,0.81696033,0.0,0.0,3,-4.098149
0.2040822,0.15511551,-0.08449254,0.20872587,1.134108,0.7670785,0.0,0.0,3,-3.888776
0.2034152,0.16032909,-0.08176543,0.20922856,1.1705728,0.72929597,0.0,0.0,0,-3.502093
0.20273742,0.16545226,-0.08161171,0.20486301,1.2070342,0.72922915,0.0,0.0,0,-3.503683
0.20204869,0.17048436,-0.08145561,0.20050122,1.2434924,0.72916234,0.0,0.0,0,-3.504756
0.20134869,0.175425,-0.081297345,0.19614322,1.2799472,0.7290956,0.0,0.0,0,-3.505349
0.20063734,0.18027343,-0.08113711,0.19178914,1.3163986,0.7290288,0.0,0.0,0,-3.505497
0.19991465,0.18502901,-0.08097515,0.18743896,1.3528467,0.72896206,0.0,0.0,0,-3.505213
0.19918041,0.18969113,-0.08081166,0.18309273,1.3892915,0.72889537,0.0,0.0,0,-3.504559
0.19843474,0.19425918,-0.08064684,0.17875047,1.425733,0.72882867,0.0,0.0,3,-3.849405
0.19769764,0.19885905,-0.07811045,0.18197793,1.4592779,0.6708976,0.0,0.0,3,-3.508345
0.19695616,0.20345022,-0.07725502,0.18281928,1.4908643,0.631728,0.0,0.0,3,-3.408068
0.19621134,0.20805831,-0.076458625,0.18524268,1.5198984,0.5806834,0.0,0.0,3,-3.050100
0.19546995,0.21265526,-0.075199194,0.1860202,1.5469966,0.54196334,0.0,0.0,3,-3.029082
0.19472274,0.21727818,-0.07504851,0.18903199,1.5713266,0.48660064,0.0,0.0,0,-2.318134
0.1939702,0.22180381,-0.07497352,0.18471143,1.5956557,0.4865808,0.0,0.0,0,-2.315868
0.19321242,0.22623204,-0.074898526,0.18039206,1.6199837,0.48656097,0.0,0.0,3,-2.815251
0.19244985,0.23070231,-0.07499006,0.1843975,1.6411723,0.42377153,0.0,0.0,3,-2.453666
0.19167337,0.23518668,-0.0761595,0.18673298,1.6598389,0.37333134,0.0,0.0,3,-2.126646
0.19089527,0.2396734,-0.07621339,0.18836537,1.676267,0.32856295,0.0,0.0,0,-1.538393
0.19011478,0.24406257,-0.07617934,0.18404756,1.6926949,0.32855684,0.0,0.0,0,-1.535351
0.18933192,0.2483541,-0.076145366,0.17973016,1.7091224,0.32855076,0.0,0.0,0,-1.532113
0.18854657,0.25254786,-0.07611145,0.17541315,1.7255497,0.32854465,0.0,0.0,0,-1.528706
0.18775892,0.25664392,-0.076077625,0.17109649,1.7419766,0.3285385,0.0,0.0,0,-1.525136
0.1869688,0.2606422,-0.076043874,0.16678019,1.7584032,0.3285324,0.0,0.0,3,-1.881377
0.18616858,0.2646297,-0.07719936,0.16764058,1.7728661,0.28925854,0.0,0.0,3,-1.770352
0.18535805,0.26863018,-0.078552,0.16988133,1.7848493,0.23966396,0.0,0.0,3,-1.626561
0.18452148,0.27265394,-0.08163092,0.17277041,1.7940437,0.1838864,0.0,0.0,0,-0.808913
0.18368416,0.27658018,-0.08162046,0.16845194,1.8032379,0.18388528,0.0,0.0,0,-0.805087
0.18284626,0.280409,-0.081610024,0.16413355,1.8124322,0.18388419,0.0,0.0,0,-0.801160
0.1820076,0.28414035,-0.08159961,0.15981524,1.8216263,0.1838831,0.0,0.0,0,-0.797196
0.18116817,0.2877742,-0.08158922,0.15549698,1.8308204,0.18388203,0.0,0.0,3,-1.275154
0.18030271,0.29141164,-0.08474336,0.15720701,1.8376535,0.13666223,0.0,0.0,3,-1.092914
0.17941037,0.29506624,-0.08810832,0.15970929,1.841826,0.0834481,0.0,0.0,0,-0.298698
0.17851791,0.2986235,-0.0881062,0.15538968,1.8459984,0.08344801,0.0,0.0,0,-0.294789
0.17762537,0.3020836,-0.088104084,0.15107007,1.8501709,0.08344789,0.0,0.0,0,-0.290874
0.17673263,0.3054464,-0.08810195,0.14675047,1.8543433,0.08344778,0.0,0.0,0,-0.287004
0.1758397,0.30871198,-0.08809984,0.14243087,1.8585156,0.08344766,0.0,0.0,0,-0.283195
0.17494659,0.3118802,-0.08809772,0.13811131,1.862688,0.08344756,0.0,0.0,3,-0.778223
0.17402677,0.31505558,-0.091474675,0.14000504,1.8644204,0.034648217,0.0,0.0,3,-0.452676
0.17308807,0.31822407,-0.09397909,0.14104699,1.8640709,-0.006989443,0.0,0.0,3,-0.331793
0.17212495,0.3214042,-0.097138725,0.1431954,1.8612019,-0.057379328,0.0,0.0,3,0.024052
0.17114583,0.32457605,-0.09932627,0.14414313,1.8563029,-0.097980075,0.0,0.0,0,0.616995
0.1701664,0.32765067,-0.09932335,0.1398237,1.8514038,-0.0979799,0.0,0.0,3,0.119623
0.16916819,0.33074942,-0.10194399,0.14269374,1.8437524,-0.15302989,0.0,0.0,3,0.379794
0.1681509,0.33387724,-0.10454085,0.14585829,1.833241,-0.21022895,0.0,0.0,3,0.752354
0.16711454,0.3370049,-0.106919825,0.14733481,1.8204938,-0.25494295,0.0,0.0,0,1.397418
0.16607675,0.34003487,-0.106899895,0.1430183,1.8077468,-0.2549401,0.0,0.0,0,1.401232
0.16503763,0.34296706,-0.10687991,0.13870163,1.795,-0.25493726,0.0,0.0,0,1.404928
0.16399698,0.34580162,-0.10685986,0.13438477,1.7822533,-0.25493446,0.0,0.0,3,1.074237
0.16294861,0.34863484,-0.10790626,0.13577166,1.7673573,-0.2979191,0.0,0.0,3,1.299110
0.16189012,0.3514598,-0.10906179,0.13676967,1.7504487,-0.33817372,0.0,0.0,0,1.824516
0.16082916,0.35418686,-0.10902618,0.13245419,1.7335404,-0.33816707,0.0,0.0,0,1.828120
0.15976581,0.35681605,-0.108990476,0.12813832,1.7166325,-0.3381604,0.0,0.0,0,1.831533
0.1586999,0.35934758,-0.10895467,0.123822056,1.6997249,-0.3381537,0.0,0.0,3,1.502769
0.15762243,0.36188057,-0.110070445,0.12541662,1.680576,-0.38297838,0.0,0.0,3,1.806755
0.15654126,0.36440593,-0.11025365,0.12646441,1.6594106,-0.42330647,0.0,0.0,3,1.922107
0.15544891,0.36694238,-0.111099385,0.12863308,1.6357929,-0.47235793,0.0,0.0,0,2.508427
0.15435162,0.36938125,-0.111028895,0.124316745,1.6121758,-0.4723398,0.0,0.0,0,2.511894
0.15324946,0.37172258,-0.11095828,0.11999929,1.5885597,-0.4723217,0.0,0.0,0,2.515093
0.15214233,0.37396654,-0.11088757,0.11568073,1.5649447,-0.47230357,0.0,0.0,0,2.518043
0.15103026,0.3761133,-0.11081685,0.11136105,1.5413306,-0.47228542,0.0,0.0,0,2.520676
0.14991322,0.3781631,-0.110746145,0.107040256,1.5177174,-0.4722673,0.0,0.0,0,2.522995
0.14879122,0.3801161,-0.11067548,0.10271835,1.494105,-0.47224918,0.0,0.0,0,2.524948
0.14766426,0.38197255,-0.11060492,0.09839533,1.4704936,-0.47223106,0.0,0.0,0,2.526530
0.14653254,0.3837325,-0.110534474,0.09407122,1.4468831,-0.47221294,0.0,0.0,0,2.527726
0.14539576,0.38539624,-0.11046419,0.08974598,1.4232734,-0.47219482,0.0,0.0,0,2.528487
0.14425421,0.38696396,-0.11039412,0.08541965,1.3996646,-0.4721767,0.0,0.0,0,2.528800
0.1431077,0.38843566,-0.11032431,0.081092216,1.3760568,-0.47215858,0.0,0.0,0,2.528613
0.14195642,0.38981175,-0.11025479,0.0767637,1.3524499,-0.47214046,0.0,0.0,0,2.527955
0.14080028,0.39109212,-0.11018558,0.072434075,1.328844,-0.47212234,0.0,0.0,0,2.526774
0.13963938,0.392277,-0.11011674,0.06810338,1.3052388,-0.47210416,0.0,0.0,0,2.525024
0.1384737,0.39336678,-0.110048294,0.06377159,1.2816347,-0.47208604,0.0,0.0,0,2.522729
0.13730335,0.3943615,-0.10998027,0.05943873,1.2580314,-0.47206792,0.0,0.0,0,2.519849
0.13612823,0.3952613,-0.10991274,0.055104803,1.234429,-0.47204977,0.0,0.0,0,2.516381
0.13494854,0.3960663,-0.10984571,0.050769817,1.2108276,-0.47203168,0.0,0.0,0,2.512334
0.13376418,0.39677683,-0.10977925,0.046433784,1.1872269,-0.47201356,0.0,0.0,0,2.507674
0.13257532,0.39739287,-0.109713376,0.042096708,1.1636273,-0.4719955,0.0,0.0,0,2.502467
0.1313819,0.39791465,-0.10964811,0.037758596,1.1400284,-0.47197738,0.0,0.0,0,2.496657
0.13018389,0.3983423,-0.10958352,0.033419468,1.1164305,-0.4719593,0.0,0.0,0,2.490299
0.12898159,0.39867613,-0.10951962,0.029079331,1.0928336,-0.47194117,0.0,0.0,0,2.483461
0.12777491,0.3989161,-0.109456465,0.024738196,1.0692376,-0.47192305,0.0,0.0,0,2.476137
0.12656374,0.3990625,-0.10939407,0.020396076,1.0456425,-0.47190493,0.0,0.0,0,2.468416
0.12534837,0.39911535,-0.10933248,0.01605298,1.0220482,-0.47188678,0.0,0.0,0,2.460329
0.12412872,0.39907494,-0.10927172,0.011708922,0.9984548,-0.47186866,0.0,0.0,0,2.451955
0.12290497,0.39894128,-0.10921184,0.0073639173,0.9748623,-0.47185054,0.0,0.0,0,2.443363
0.121677116,0.39871454,-0.10915284,0.003017979,0.95127064,-0.47183242,0.0,0.0,0,2.434620
0.12044535,0.39839494,-0.10909478,-0.0013288785,0.9276799,-0.4718143,0.0,0.0,1,1.596772
0.11916447,0.39790887,-0.11481539,-0.010026025,0.9060973,-0.43165174,0.0,0.0,0,2.209179
0.11788025,0.39732945,-0.11476842,-0.01436998,0.8845154,-0.4316379,0.0,0.0,0,2.201689
0.116592884,0.39665666,-0.11472223,-0.018714607,0.86293423,-0.43162403,0.0,0.0,0,2.194429
0.11530237,0.39589077,-0.11467683,-0.023059888,0.8413537,-0.4316102,0.0,0.0,0,2.187451
0.11400881,0.3950319,-0.114632264,-0.027405817,0.8197739,-0.43159634,0.0,0.0,0,2.180838
0.11271229,0.39407995,-0.11458856,-0.031752378,0.79819477,-0.43158245,0.0,0.0,1,1.353001
0.111373805,0.39296436,-0.119745985,-0.040106338,0.7784268,-0.39535916,0.0,0.0,1,1.124760
0.10998831,0.39169365,-0.12546661,-0.04800999,0.7604238,-0.36006027,0.0,0.0,1,0.786586
0.10854864,0.39025363,-0.13221791,-0.05665596,0.7445255,-0.3179652,0.0,0.0,0,1.601934
0.107107446,0.3887189,-0.13219595,-0.06099157,0.7286275,-0.31795973,0.0,0.0,0,1.600093
0.10566483,0.38708955,-0.13217436,-0.06532741,0.7127298,-0.31795418,0.0,0.0,0,1.598678
0.10422067,0.3853655,-0.13215315,-0.06966348,0.69683236,-0.31794864,0.0,0.0,0,1.597655
0.102775194,0.38354683,-0.13213234,-0.07399977,0.6809352,-0.3179431,0.0,0.0,0,1.597047
0.10132818,0.38163352,-0.13211192,-0.078336276,0.66503835,-0.31793752,0.0,0.0,0,1.596840
0.09987984,0.37962565,-0.13209188,-0.08267299,0.6491417,-0.31793195,0.0,0.0,0,1.597016
0.09843016,0.3775233,-0.13207224,-0.08700993,0.6332454,-0.3179264,0.0,0.0,0,1.597577
0.09697914,0.3753265,-0.13205303,-0.09134707,0.6173494,-0.31792086,0.0,0.0,0,1.598539
0.09552679,0.3730352,-0.13203421,-0.09568441,0.6014536,-0.31791535,0.0,0.0,0,1.599848
0.094073296,0.37064946,-0.13201582,-0.10002195,0.5855581,-0.3179098,0.0,0.0,0,1.601522
0.092618465,0.3681693,-0.13199785,-0.10435968,0.5696629,-0.3179043,0.0,0.0,0,1.603537
0.09116249,0.36559483,-0.13198029,-0.10869761,0.553768,-0.31789875,0.0,0.0,0,1.605881
0.08970537,0.362926,-0.13196316,-0.11303571,0.5378733,-0.3178932,0.0,0.0,0,1.608554
0.088247016,0.36016273,-0.13194647,-0.11737399,0.521979,-0.31788766,0.0,0.0,0,1.611519
0.086787604,0.3573053,-0.13193023,-0.121712446,0.50608486,-0.31788212,0.0,0.0,0,1.614779
0.08532715,0.35435358,-0.13191444,-0.12605107,0.49019104,-0.31787658,0.0,0.0,0,1.618329
0.083865546,0.3513076,-0.13189907,-0.13038985,0.4742975,-0.31787106,0.0,0.0,0,1.622141
0.08240299,0.34816733,-0.13188417,-0.13472882,0.4584042,-0.31786552,0.0,0.0,0,1.626203
0.08093939,0.34493294,-0.1318697,-0.13906792,0.4425112,-0.31786,0.0,0.0,0,1.630500
0.079474926,0.34160444,-0.13185571,-0.14340717,0.4266185,-0.31785446,0.0,0.0,0,1.635045
0.07800941,0.33818173,-0.13184217,-0.14774658,0.41072604,-0.31784892,0.0,0.0,0,1.639794
0.07654314,0.33466494,-0.13182911,-0.15208612,0.39483383,-0.31784338,0.0,0.0,0,1.644758
0.07507601,0.33105406,-0.1318165,-0.15642582,0.37894192,-0.31783786,0.0,0.0,0,1.649914
0.07360802,0.3273491,-0.13180438,-0.16076565,0.36305034,-0.3178323,0.0,0.0,0,1.655267
0.07213926,0.3235501,-0.13179272,-0.1651056,0.34715897,-0.3178268,0.0,0.0,0,1.660792
0.07066975,0.3196571,-0.13178155,-0.16944566,0.33126786,-0.3178213,0.0,0.0,0,1.666490
0.069199465,0.31567004,-0.13177083,-0.17378584,0.31537706,-0.31781575,0.0,0.0,0,1.672348
0.06772852,0.31158894,-0.13176061,-0.17812613,0.29948655,-0.31781024,0.0,0.0,0,1.678351
0.066257,0.30741394,-0.13175087,-0.18246652,0.28359628,-0.3178047,0.0,0.0,0,1.684502
0.06478481,0.30314493,-0.13174163,-0.18680702,0.2677063,-0.31779915,0.0,0.0,0,1.690806
0.06331196,0.29878187,-0.13173287,-0.19114761,0.2518166,-0.31779364,0.0,0.0,0,1.697217
0.061838627,0.29432487,-0.1317246,-0.19548829,0.2359272,-0.31778812,0.0,0.0,0,1.703767
0.060364723,0.28977394,-0.13171682,-0.19982904,0.22003807,-0.31778258,0.0,0.0,0,1.710427
0.058890246,0.28512907,-0.13170956,-0.20416988,0.2041492,-0.31777707,0.0,0.0,0,1.717193
0.05741539,0.28039026,-0.13170278,-0.2085108,0.18826064,-0.3177715,0.0,0.0,0,1.724065
0.055940054,0.27555764,-0.13169649,-0.2128518,0.17237234,-0.31776598,0.0,0.0,0,1.731050
0.05446434,0.27063105,-0.13169071,-0.21719284,0.15648432,-0.31776044,0.0,0.0,0,1.738112
0.05298834,0.26561058,-0.13168544,-0.22153397,0.14059658,-0.3177549,0.0,0.0,0,1.745278
0.051511955,0.26049623,-0.13168065,-0.22587512,0.12470914,-0.31774935,0.0,0.0,0,1.752521
0.05003538,0.255288,-0.13167639,-0.23021634,0.10882194,-0.31774384,0.0,0.0,0,1.759848
0.048558522,0.24998596,-0.13167264,-0.2345576,0.092935026,-0.31773832,0.0,0.0,3,2.598545
0.047172166,0.24461311,-0.120268665,-0.23775336,0.07473496,-0.36400142,0.0,0.0,3,2.557751
0.04585018,0.23916586,-0.11213604,-0.24122061,0.054887056,-0.39695814,0.0,0.0,3,2.835374
0.044622518,0.23362549,-0.1002752,-0.24556354,0.0326686,-0.4443695,0.0,0.0,0,2.393699
0.043394756,0.22799443,-0.10027238,-0.24992533,0.010450889,-0.4443544,0.0,0.0,0,0.048265
0.042166997,0.22227274,-0.10027097,-0.25428715,-0.011766081,-0.44433928,0.0,0.0,0,-2.033931
0.04093933,0.21646042,-0.10027095,-0.25864896,-0.033982284,-0.44432417,0.0,0.0,0,-2.025913
0.039711762,0.21055757,-0.10027232,-0.2630108,-0.05619773,-0.44430906,0.0,0.0,0,-2.017839
0.038484477,0.204564,-0.100275084,-0.2673726,-0.07841243,-0.44429392,0.0,0.0,0,-2.009726
0.037257574,0.19847983,-0.100279234,-0.27173433,-0.10062636,-0.44427878,0.0,0.0,0,-2.001569
0.036031056,0.19230488,-0.10028479,-0.27609602,-0.12283953,-0.44426364,0.0,0.0,0,-1.993384
0.034805108,0.18603931,-0.100291714,-0.28045762,-0.14505194,-0.4442486,0.0,0.0,1,-2.078746
0.033503912,0.17969579,-0.10981126,-0.28404012,-0.16533646,-0.40569037,0.0,0.0,1,-1.852716
0.03213806,0.17327751,-0.118025914,-0.28742322,-0.183939,-0.37205064,0.0,0.0,1,-1.666776
0.030700017,0.16679221,-0.12719806,-0.29038012,-0.20064054,-0.33403072,0.0,0.0,1,-1.469836
0.029184246,0.16024505,-0.1370649,-0.29301813,-0.21527833,-0.2927556,0.0,0.0,0,-1.176885
0.027668763,0.15360339,-0.1370705,-0.29735595,-0.22991589,-0.29275125,0.0,0.0,0,-1.168655
0.026153754,0.14686741,-0.13707653,-0.30169365,-0.24455322,-0.2927469,0.0,0.0,0,-1.160379
0.024639225,0.140037,-0.1370829,-0.3060313,-0.25919032,-0.29274255,0.0,0.0,0,-1.152066
0.023125172,0.1331121,-0.13708967,-0.3103689,-0.2738272,-0.29273826,0.0,0.0,0,-1.143726
0.021611596,0.1260928,-0.13709682,-0.31470641,-0.28846386,-0.29273394,0.0,0.0,0,-1.135343
0.020098686,0.11897894,-0.13710436,-0.31904384,-0.30310035,-0.2927296,0.0,0.0,1,-1.205376
0.01849308,0.11180378,-0.14880858,-0.3213958,-0.31527755,-0.24354377,0.0,0.0,1,-0.872116
0.016823102,0.10457347,-0.15703946,-0.32354727,-0.32563305,-0.20710993,0.0,0.0,1,-0.703482
0.015079116,0.09729102,-0.16645089,-0.32547167,-0.33391294,-0.16559799,0.0,0.0,1,-0.533478
0.013276577,0.08993906,-0.17386581,-0.32824945,-0.34059897,-0.13372065,0.0,0.0,0,-0.288395
0.0114742275,0.08249045,-0.17386767,-0.332573,-0.34728497,-0.13372023,0.0,0.0,0,-0.280578
0.009671879,0.07494522,-0.17386958,-0.33689654,-0.35397097,-0.1337198,0.0,0.0,0,-0.272912
0.007869625,0.067303285,-0.17387155,-0.34122008,-0.36065695,-0.1337194,0.0,0.0,2,2.977554
0.006339264,0.06015974,-0.14720558,-0.3189705,-0.3668158,-0.123176895,0.0,0.0,2,2.779598
0.005000496,0.053567514,-0.1281606,-0.29446644,-0.37286484,-0.120980665,0.0,0.0,0,-0.323886
0.0036618232,0.046878513,-0.12816228,-0.2987893,-0.37891385,-0.12098032,0.0,0.0,0,9.683441
0.0023233413,0.04009274,-0.12816398,-0.30311215,-0.38496286,-0.12098001,1.0,0.0,0,5.563278
0.0009595871,0.034403525,-0.1458687,-0.250512,-0.3742813,0.2145124,1.0,0.0,2,10.343417
-0.00018224717,0.03058642,-0.14081368,-0.16291979,-0.34622306,0.5610969,1.0,0.0,0,6.473087
-0.0012419701,0.027428923,-0.14795074,-0.13086325,-0.30244103,0.87568045,1.0,0.0,0,6.259101
-0.0022485733,0.024624048,-0.15230809,-0.11482377,-0.2493604,1.0616853,1.0,0.0,0,5.539434
-0.0032438277,0.021819888,-0.1531849,-0.1164532,-0.19495028,1.0882857,1.0,0.0,0,5.071540
-0.0042626383,0.018927036,-0.15473785,-0.12248834,-0.14196695,1.059712,1.0,0.0,0,-4.835228
-0.005286026,0.015964517,-0.15520869,-0.12747541,-0.08940637,1.0512123,0.0,0.0,0,5.202192
-0.006307316,0.012941417,-0.15524805,-0.13202664,-0.036855787,1.0510125,0.0,0.0,0,2.029055
-0.0073278425,0.009857771,-0.15526912,-0.13657889,0.015684808,1.0508128,0.0,0.0,0,-5.399763
-0.008348751,0.00671365,-0.15527186,-0.14113154,0.068215415,1.0506132,0.0,0.0,0,9.611372
-0.009417057,0.004261968,-0.1415972,-0.11098113,0.10239846,0.6833209,0.0,1.0,0,0.530253
-0.010597801,0.0024015522,-0.13435665,-0.08403352,0.11800127,0.3113119,0.0,1.0,0,2.055413
-0.011901474,0.001097498,-0.12735917,-0.05772678,0.11500246,-0.059987914,0.0,1.0,0,3.066183
-0.013305092,0.00025392533,-0.12139001,-0.036145307,0.0961591,-0.37688917,0.0,1.0,0,3.166032
-0.0147625925,-0.00037725212,-0.11805184,-0.026505323,0.068705186,-0.5491016,0.0,1.0,0,2.682227
-0.016225433,-0.0010593915,-0.117530644,-0.029245345,0.040266547,-0.56879485,0.0,1.0,0,2.500884
-0.017669678,-0.0018573665,-0.11678873,-0.034956634,0.012957187,-0.546209,0.0,1.0,0,-0.421282
-0.019113446,-0.0027426027,-0.116746545,-0.03933956,-0.014339469,-0.54595476,1.0,0.0,0,-1.079381
-0.020419026,-0.0033455633,-0.11531116,-0.027167702,-0.028479286,-0.28164274,1.0,0.0,0,0.628192
-0.02152424,-0.0035939002,-0.112418555,-0.011008468,-0.026578514,0.038053878,1.0,0.0,0,1.557858
-0.022487069,-0.0035993361,-0.11026561,-5.534802e-05,-0.012739485,0.2768239,1.0,0.0,0,11.500933
-0.023417091,-0.0032397055,-0.10477082,0.016025564,-0.0011396041,0.23196912,1.0,1.0,0,-0.202805
-0.024377633,-0.0025049234,-0.100177325,0.03264901,0.0029277059,0.08134533,1.0,1.0,0,-0.086686
-0.025355529,-0.0014527822,-0.0961589,0.046767157,0.0013383945,-0.031765804,1.0,1.0,0,-0.511844
-0.026371384,-0.0003345156,-0.09451585,0.049696006,-0.005624381,-0.13923028,1.0,1.0,0,-0.390878
-0.027370548,0.000659225,-0.09391483,0.044131856,-0.011545602,-0.11842471,1.0,1.0,0,-10.519165
-0.028369714,0.001556263,-0.09391486,0.039808888,-0.017466825,-0.11842444,1.0,0.0,0,-0.536397
-0.029368877,0.002356527,-0.09391491,0.035485927,-0.023388037,-0.11842425,1.0,0.0,0,-0.531162
-0.030364513,0.0030687428,-0.09387017,0.03155515,-0.029007262,-0.112384476,1.0,0.0,0,-0.491074
-0.031353094,0.0037016368,-0.09377984,0.028021047,-0.034021698,-0.10028889,1.0,0.0,0,-0.440753
-0.032334615,0.0042552804,-0.093688026,0.02449837,-0.038425215,-0.08807032,1.0,0.0,0,-0.389734
-0.033308886,0.0047298167,-0.093594894,0.020986008,-0.042212237,-0.07574044,1.0,0.0,0,-0.338175
-0.03427591,0.0051253177,-0.09350055,0.017482763,-0.045377847,-0.06331208,1.0,0.0,0,-0.286199
-0.035235595,0.005441854,-0.09340515,0.013987348,-0.047917813,-0.050799243,1.0,0.0,0,-0.233948
-0.03618803,0.0056794975,-0.09330891,0.010498396,-0.04982863,-0.038216345,1.0,0.0,0,-0.181514
-0.03713312,0.005838356,-0.09321199,0.0070144706,-0.051107574,-0.025578802,1.0,0.0,0,-0.129000
-0.038070776,0.005918393,-0.09311462,0.003534077,-0.051752705,-0.012902407,1.0,0.0,1,-1.028320
-0.03909216,0.005915246,-0.10362653,-8.9723515e-05,-0.0502819,0.029415712,1.0,0.0,1,-0.707259
-0.0401844,0.0058212257,-0.112513386,-0.0040726266,-0.047027294,0.065092124,1.0,0.0,1,-10.726505
-0.041364957,0.0056295013,-0.123600565,-0.008356737,-0.041554254,0.109461285,0.0,0.0,1,-0.267702
-0.042609118,0.0053537344,-0.13159019,-0.012074694,-0.03447313,0.1416226,0.0,0.0,0,0.542466
-0.043853283,0.004981408,-0.13159041,-0.016398927,-0.027392026,0.14162214,0.0,0.0,0,0.528966
-0.045097448,0.0045125578,-0.13159059,-0.02072316,-0.020310953,0.14162163,0.0,0.0,0,0.515333
-0.04634161,0.00394722,-0.13159074,-0.025047395,-0.013229902,0.14162114,0.0,0.0,0,0.501579
-0.047585774,0.0032852865,-0.13159083,-0.029371627,-0.0061488794,0.14162067,0.0,0.0,0,0.301290
-0.048829935,0.0025268293,-0.13159087,-0.033695865,0.0009321218,0.14162016,0.0,0.0,0,-0.942444
-0.0500741,0.0016718484,-0.13159087,-0.0380201,0.008013094,0.14161965,0.0,0.0,0,-0.956496
-0.051318265,0.00072037935,-0.13159081,-0.04234434,0.015094051,0.14161916,0.0,0.0,0,11.295169
-0.052625276,0.00011241197,-0.12591681,-0.026997704,0.010297705,-0.09601479,0.0,1.0,0,0.357075
-0.053935625,-0.0005713368,-0.12564507,-0.03037725,0.004927181,-0.10748192,0.0,1.0,0,0.200742
-0.055249117,-0.0013311171,-0.12537713,-0.033772387,-0.0010122758,-0.118847325,0.0,1.0,0,11.056713
-0.056429863,-0.0013366961,-0.11810541,-0.0002662992,-0.0010049519,0.00012203192,1.0,1.0,3,1.038353
-0.057493307,-0.0013312602,-0.10635443,0.00023324515,-0.0010094253,-0.00010636032,1.0,1.0,3,0.750654
-0.05846882,-0.0013309026,-0.097573504,6.9104967e-06,-0.0010088172,-3.141123e-06,1.0,1.0,3,1.053312
-0.059327506,-0.001330688,-0.08588252,8.498006e-07,-0.0010082091,-3.7896734e-07,1.0,1.0,3,0.897035
-0.060085963,-0.0013304019,-0.075854376,2.7882465e-06,-0.0010077432,-1.259678e-06,1.0,1.0,0,0.016682
-0.060835265,-0.0013302588,-0.07493891,-1.5119983e-06,-0.00100727,6.8052475e-07,1.0,1.0,0,0.017687
-0.06157551,-0.0013301158,-0.07402234,-4.0352525e-08,-0.0010069134,1.8506999e-08,1.0,1.0,0,0.018599
-0.062306594,-0.0013300442,-0.07310574,1.0063778e-08,-0.001006609,-9.252372e-09,1.0,1.0,3,1.142730
-0.06291418,-0.0013300442,-0.060771327,-3.966229e-06,-0.0010062684,1.7793736e-06,1.0,1.0,3,0.753516
-0.06343822,-0.0013299012,-0.0524124,1.7964729e-06,-0.0010061181,-8.0507635e-07,1.0,1.0,0,0.040183
-0.06395312,-0.0013298297,-0.0514959,2.1713286e-06,-0.0010060128,-9.741159e-07,1.0,1.0,0,0.041048
-0.064458944,-0.0013298297,-0.050579827,1.8791091e-08,-0.0010058791,-1.9132282e-09,1.0,1.0,0,0.041988
-0.064955615,-0.0013298297,-0.049663495,-1.6400609e-08,-0.0010057614,8.72601e-09,1.0,1.0,3,1.124789
-0.06533299,-0.0013299012,-0.03773852,-4.692499e-06,-0.0010055581,2.1035564e-06,1.0,1.0,3,1.102500
-0.06559448,-0.0013297582,-0.026152045,4.84004e-06,-0.0010055946,-2.1651995e-06,1.0,1.0,0,0.066310
-0.06584682,-0.0013297582,-0.025236722,-1.11198865e-07,-0.0010055235,5.0483447e-08,1.0,1.0,0,0.067331
-0.06609001,-0.0013297582,-0.02432033,-3.521054e-08,-0.0010054706,1.3202765e-08,1.0,1.0,0,0.068248
-0.06632404,-0.0013297582,-0.023403902,6.9547346e-09,-0.0010054327,-2.8332317e-10,1.0,1.0,0,0.069163
-0.06654892,-0.0013297582,-0.022487484,6.6836967e-09,-0.0010053881,-4.0154866e-10,1.0,1.0,0,0.070076
-0.06676464,-0.0013297582,-0.021571072,3.0907646e-10,-0.0010053603,-2.2306775e-08,1.0,1.0,0,0.070991
-0.066971205,-0.0013297582,-0.020654662,-3.8393906e-09,-0.0010053397,-3.4884262e-09,1.0,1.0,0,0.071907
-0.067168616,-0.0013297582,-0.019738253,-4.682285e-09,-0.0010053123,-2.0866557e-09,1.0,1.0,0,0.072820
-0.06735687,-0.0013297582,-0.018821843,-3.5705676e-09,-0.0010053001,-3.9128523e-09,1.0,1.0,0,0.073737
-0.067535974,-0.0013297582,-0.017905433,-2.1399944e-09,-0.0010052797,-5.6767813e-09,1.0,1.0,3,1.152751
-0.06759615,-0.0013297582,-0.0060177655,5.6267055e-07,-0.0010052723,-2.4827114e-07,1.0,1.0,3,0.418913
-0.06758089,-0.0013287568,0.0015318022,4.195225e-05,-0.0010168048,-0.0002247357,1.0,1.0,0,0.092102
-0.067574695,-0.0013286853,0.00061757653,3.0863296e-06,-0.0010167726,7.1660384e-07,1.0,1.0,0,0.052229
-0.06757565,-0.0013286853,-9.574861e-05,-3.4166163e-07,-0.001015366,2.7460177e-05,1.0,1.0,0,-0.016527
-0.06757822,-0.0013286853,-0.00026231428,-2.5830045e-07,-0.001011493,7.515347e-05,1.0,1.0,0,0.012411
-0.06757965,-0.0013286853,-0.0001388347,-1.2311907e-07,-0.0010094331,3.9773906e-05,1.0,1.0,0,0.013386
-0.067579746,-0.0013286853,-4.970791e-06,-4.4087387e-09,-0.0010093446,1.4228826e-06,1.0,1.0,0,-0.003698
-0.067579366,-0.0013286853,4.172492e-05,3.7772573e-08,-0.0010099516,-1.1954543e-05,1.0,1.0,0,0.001297
-0.067579076,-0.0013286853,2.8623554e-05,2.5800015e-08,-0.0010103699,-8.198622e-06,1.0,1.0,0,0.002361
-0.06757899,-0.0013286853,5.024808e-06,4.4438697e-09,-0.0010104493,-1.4380745e-06,1.0,1.0,0,-0.000098
-0.067579076,-0.0013286853,-6.012619e-06,-5.1910924e-09,-0.001010351,1.7212599e-06,1.0,1.0,0,0.000049
-0.06757917,-0.0013286853,-5.5189566e-06,-4.9256745e-09,-0.00101026,1.5819635e-06,1.0,1.0,0,0.000391
-0.06757917,-0.0013286853,-1.6271894e-06,-1.4591363e-09,-0.0010102373,4.6524647e-07,1.0,1.0,0,0.000088
-0.06757917,-0.0013286853,7.3444613e-07,5.4905036e-10,-0.0010102504,-2.085053e-07,1.0,1.0,0,-0.000028
-0.06757917,-0.0013286853,1.0031752e-06,9.901187e-10,-0.0010102612,-2.9706072e-07,1.0,1.0,0,0.000060
-0.06757917,-0.0013286853,4.1384243e-07,5.2063986e-10,-0.001010255,-1.183324e-07,1.0,1.0,0,0.000036
-0.06757917,-0.0013286853,-5.729127e-08,-1.8411042e-10,-0.0010102488,1.4120282e-08,1.0,1.0,0,-0.000011
-0.06757917,-0.0013286853,-1.7266724e-07,-3.224444e-10,-0.0010102424,4.7827776e-08,1.0,1.0,0,0.000008
-0.06757917,-0.0013286853,-9.515092e-08,-1.0926874e-10,-0.0010102356,2.5754582e-08,1.0,1.0,0,0.000009
-0.06757917,-0.0013286853,-1.1051389e-08,-1.1879926e-10,-0.0010102297,2.4420391e-08,1.0,1.0,0,-0.000001
-0.06757917,-0.0013286853,2.5595014e-08,-1.1251593e-11,-0.0010102259,-1.9381211e-08,1.0,1.0,0,0.000000
-0.06757917,-0.0013286853,2.2714797e-08,1.4899025e-11,-0.0010102283,-2.2998957e-08,1.0,1.0,0,0.000001
-0.06757917,-0.0013286853,1.1417891e-08,2.78731e-11,-0.0010102247,-2.332347e-08,1.0,1.0,0,0.000001
-0.06757917,-0.0013286853,2.202402e-09,-4.2826734e-10,-0.0010102204,-7.957204e-09,1.0,1.0,0,-0.000001
-0.06757917,-0.0013286853,-7.0943083e-09,-9.924993e-10,-0.0010102213,2.1518296e-08,1.0,1.0,0,100
0.0041145324,1.406528,0.416745,-0.19521888,-0.004760942,-0.09439892,0.0,0.0,0,-0.112120
0.008229256,1.4020615,0.41618204,-0.19852687,-0.009425687,-0.09330277,0.0,0.0,0,-0.202423
0.012344074,1.397498,0.41619658,-0.20286064,-0.014087551,-0.093246266,0.0,0.0,0,-0.196762
0.016458988,1.3928374,0.41621023,-0.20718741,-0.018748838,-0.09323412,0.0,0.0,0,-0.191322
0.020574093,1.3880799,0.4162239,-0.21151085,-0.023409376,-0.093219504,0.0,0.0,0,-0.185980
0.024689484,1.3832254,0.41623768,-0.21583392,-0.028069206,-0.09320499,0.0,0.0,0,-0.180621
0.028804874,1.3782741,0.41625148,-0.22015712,-0.03272829,-0.093190394,0.0,0.0,0,-0.175233
0.032920457,1.3732257,0.41626516,-0.22448042,-0.037386663,-0.093175836,0.0,0.0,0,-0.169833
0.03703623,1.3680804,0.41627875,-0.22880383,-0.04204431,-0.09316138,0.0,0.0,0,-0.164404
0.041152097,1.3628381,0.41629234,-0.23312734,-0.046701215,-0.093146935,0.0,0.0,0,-0.158949
0.045268156,1.3574989,0.41630584,-0.23745094,-0.051357426,-0.09313251,0.0,0.0,0,-0.153472
0.049384307,1.3520627,0.41631928,-0.24177465,-0.056012895,-0.093118146,0.0,0.0,0,-0.147992
0.053500652,1.3465296,0.41633263,-0.24609847,-0.06066768,-0.09310385,0.0,0.0,0,-0.142478
0.057617188,1.3408995,0.41634592,-0.25042236,-0.065321736,-0.093089566,0.0,0.0,0,-0.136961
0.06173382,1.3351727,0.4163592,-0.25474635,-0.06997507,-0.093075335,0.0,0.0,0,-0.131402
0.06585064,1.3293486,0.4163724,-0.25907046,-0.074627705,-0.093061246,0.0,0.0,0,-0.125855
0.06996755,1.3234277,0.41638556,-0.26339465,-0.07927965,-0.09304716,0.0,0.0,0,-0.120276
