@RELATION lunar_lander_filter2

@ATTRIBUTE angle         NUMERIC
@ATTRIBUTE angular_vel   NUMERIC
@ATTRIBUTE left_leg      {0, 1}
@ATTRIBUTE right_leg     {0, 1}
@ATTRIBUTE action        {nothing, left_engine, main_engine, right_engine}

@DATA
0.0002,0.0014,0,0,nothing
0.0002,0.0014,0,0,nothing
0.0003,0.0014,0,0,nothing
0.0004,0.0014,0,0,nothing
0.0004,0.0014,0,0,nothing
0.0005,0.0014,0,0,nothing
0.0006,0.0014,0,0,nothing
0.0006,0.0014,0,0,nothing
0.0007,0.0014,0,0,nothing
0.0008,0.0014,0,0,nothing
0.0009,0.0014,0,0,nothing
0.0009,0.0014,0,0,nothing
0.0010,0.0014,0,0,nothing
0.0011,0.0014,0,0,nothing
0.0011,0.0014,0,0,nothing
0.0012,0.0014,0,0,nothing
0.0013,0.0014,0,0,nothing
0.0014,0.0014,0,0,nothing
0.0014,0.0014,0,0,nothing
0.0015,0.0014,0,0,nothing
0.0016,0.0014,0,0,nothing
0.0016,0.0014,0,0,nothing
0.0017,0.0014,0,0,nothing
0.0018,0.0014,0,0,nothing
0.0019,0.0014,0,0,nothing
0.0019,0.0014,0,0,nothing
0.0020,0.0014,0,0,nothing
0.0021,0.0014,0,0,nothing
0.0021,0.0014,0,0,nothing
0.0022,0.0014,0,0,nothing
0.0023,0.0014,0,0,nothing
0.0024,0.0014,0,0,nothing
0.0024,0.0014,0,0,nothing
0.0025,0.0014,0,0,nothing
0.0026,0.0014,0,0,nothing
0.0026,0.0014,0,0,nothing
0.0027,0.0014,0,0,nothing
0.0028,0.0014,0,0,nothing
0.0029,0.0014,0,0,nothing
0.0029,0.0014,0,0,nothing
0.0030,0.0014,0,0,nothing
0.0031,0.0014,0,0,nothing
0.0031,0.0014,0,0,nothing
0.0032,0.0014,0,0,nothing
0.0033,0.0014,0,0,nothing
0.0033,0.0014,0,0,nothing
0.0034,0.0014,0,0,nothing
0.0035,0.0014,0,0,nothing
0.0036,0.0014,0,0,nothing
0.0036,0.0014,0,0,nothing
0.0037,0.0014,0,0,nothing
0.0043,0.0129,0,0,main_engine
0.0052,0.0170,0,0,main_engine
0.0059,0.0136,0,0,main_engine
0.0066,0.0136,0,0,nothing
0.0072,0.0136,0,0,nothing
0.0079,0.0136,0,0,nothing
0.0086,0.0136,0,0,nothing
0.0093,0.0136,0,0,nothing
0.0099,0.0136,0,0,nothing
0.0106,0.0136,0,0,nothing
0.0113,0.0136,0,0,nothing
0.0120,0.0136,0,0,nothing
0.0127,0.0136,0,0,nothing
0.0133,0.0136,0,0,nothing
0.0140,0.0136,0,0,nothing
0.0147,0.0136,0,0,nothing
0.0154,0.0136,0,0,nothing
0.0161,0.0136,0,0,nothing
0.0167,0.0136,0,0,nothing
0.0174,0.0136,0,0,nothing
0.0181,0.0136,0,0,nothing
0.0188,0.0136,0,0,nothing
0.0194,0.0136,0,0,nothing
0.0201,0.0136,0,0,nothing
0.0208,0.0136,0,0,nothing
0.0215,0.0136,0,0,nothing
0.0222,0.0136,0,0,nothing
0.0228,0.0136,0,0,nothing
0.0235,0.0136,0,0,nothing
0.0242,0.0136,0,0,nothing
0.0249,0.0136,0,0,nothing
0.0255,0.0136,0,0,nothing
0.0262,0.0136,0,0,nothing
0.0269,0.0136,0,0,nothing
0.0276,0.0136,0,0,nothing
0.0283,0.0136,0,0,nothing
0.0289,0.0136,0,0,nothing
0.0296,0.0136,0,0,nothing
0.0303,0.0136,0,0,nothing
0.0310,0.0136,0,0,nothing
0.0316,0.0136,0,0,nothing
0.0323,0.0136,0,0,nothing
0.0325,0.0039,0,0,main_engine
0.0323,-0.0049,0,0,main_engine
0.0320,-0.0049,0,0,nothing
0.0318,-0.0049,0,0,nothing
0.0315,-0.0049,0,0,nothing
0.0313,-0.0049,0,0,nothing
0.0311,-0.0049,0,0,nothing
0.0308,-0.0049,0,0,nothing
0.0306,-0.0049,0,0,nothing
0.0303,-0.0049,0,0,nothing
0.0301,-0.0049,0,0,nothing
0.0298,-0.0049,0,0,nothing
0.0296,-0.0049,0,0,nothing
0.0293,-0.0049,0,0,nothing
0.0291,-0.0049,0,0,nothing
0.0289,-0.0049,0,0,nothing
0.0286,-0.0049,0,0,nothing
0.0284,-0.0049,0,0,nothing
0.0281,-0.0049,0,0,nothing
0.0279,-0.0049,0,0,nothing
0.0276,-0.0049,0,0,nothing
0.0274,-0.0049,0,0,nothing
0.0271,-0.0049,0,0,nothing
0.0269,-0.0049,0,0,nothing
0.0267,-0.0049,0,0,nothing
0.0264,-0.0049,0,0,nothing
0.0262,-0.0049,0,0,nothing
0.0259,-0.0049,0,0,nothing
0.0257,-0.0049,0,0,nothing
0.0254,-0.0049,0,0,nothing
0.0252,-0.0049,0,0,nothing
0.0249,-0.0049,0,0,nothing
0.0247,-0.0049,0,0,nothing
0.0245,-0.0049,0,0,nothing
0.0242,-0.0049,0,0,nothing
0.0240,-0.0049,0,0,nothing
0.0237,-0.0049,0,0,nothing
0.0235,-0.0049,0,0,nothing
0.0232,-0.0049,0,0,nothing
0.0230,-0.0049,0,0,nothing
0.0227,-0.0049,0,0,nothing
0.0225,-0.0051,0,0,main_engine
0.0215,-0.0198,0,0,main_engine
0.0208,-0.0143,0,0,main_engine
0.0201,-0.0143,0,0,nothing
0.0194,-0.0143,0,0,nothing
0.0186,-0.0143,0,0,nothing
0.0179,-0.0143,0,0,nothing
0.0172,-0.0143,0,0,nothing
0.0165,-0.0143,0,0,nothing
0.0158,-0.0143,0,0,nothing
0.0151,-0.0143,0,0,nothing
0.0147,-0.0076,0,0,main_engine
0.0145,-0.0048,0,0,main_engine
0.0142,-0.0048,0,0,nothing
0.0140,-0.0048,0,0,nothing
0.0137,-0.0048,0,0,nothing
0.0135,-0.0048,0,0,nothing
0.0133,-0.0048,0,0,nothing
0.0130,-0.0048,0,0,nothing
0.0128,-0.0048,0,0,nothing
0.0117,-0.0209,0,0,main_engine
0.0100,-0.0358,0,0,main_engine
0.0082,-0.0358,0,0,nothing
0.0064,-0.0358,0,0,nothing
0.0046,-0.0358,0,0,nothing
0.0028,-0.0358,0,0,nothing
0.0010,-0.0358,0,0,nothing
-0.0008,-0.0358,0,0,nothing
-0.0026,-0.0358,0,0,nothing
-0.0044,-0.0358,0,0,nothing
-0.0062,-0.0358,0,0,nothing
-0.0080,-0.0358,0,0,nothing
-0.0098,-0.0358,0,0,nothing
-0.0115,-0.0358,0,0,nothing
-0.0133,-0.0358,0,0,nothing
-0.0151,-0.0358,0,0,nothing
-0.0169,-0.0358,0,0,nothing
-0.0187,-0.0358,0,0,nothing
-0.0205,-0.0358,0,0,nothing
-0.0223,-0.0358,0,0,nothing
-0.0241,-0.0358,0,0,nothing
-0.0259,-0.0358,0,0,nothing
-0.0277,-0.0358,0,0,nothing
-0.0295,-0.0358,0,0,nothing
-0.0308,-0.0271,0,0,main_engine
-0.0330,-0.0432,0,0,main_engine
-0.0354,-0.0493,0,0,main_engine
-0.0387,-0.0652,0,0,main_engine
-0.0420,-0.0652,0,0,nothing
-0.0452,-0.0652,0,0,nothing
-0.0485,-0.0652,0,0,nothing
-0.0518,-0.0652,0,0,nothing
-0.0550,-0.0652,0,0,nothing
-0.0583,-0.0652,0,0,nothing
-0.0615,-0.0652,0,0,nothing
-0.0648,-0.0652,0,0,nothing
-0.0681,-0.0652,0,0,nothing
-0.0713,-0.0652,0,0,nothing
-0.0746,-0.0652,0,0,nothing
-0.0779,-0.0652,0,0,nothing
-0.0811,-0.0652,0,0,nothing
-0.0844,-0.0652,0,0,nothing
-0.0876,-0.0652,0,0,nothing
-0.0909,-0.0652,0,0,nothing
-0.0942,-0.0652,0,0,nothing
-0.0974,-0.0652,0,0,nothing
-0.1007,-0.0652,0,0,nothing
-0.1040,-0.0652,0,0,nothing
-0.1072,-0.0652,0,0,nothing
-0.1105,-0.0652,0,0,nothing
-0.1137,-0.0652,0,0,nothing
-0.1150,-0.0247,0,0,left_engine
-0.1138,0.0238,0,0,left_engine
-0.1105,0.0666,0,0,left_engine
-0.1071,0.0666,0,0,nothing
-0.1038,0.0666,0,0,nothing
-0.1005,0.0666,0,0,nothing
-0.0971,0.0666,0,0,nothing
-0.0938,0.0666,0,0,nothing
-0.0905,0.0666,0,0,nothing
-0.0872,0.0666,0,0,nothing
-0.0838,0.0666,0,0,nothing
-0.0805,0.0666,0,0,nothing
-0.0772,0.0666,0,0,nothing
-0.0738,0.0666,0,0,nothing
-0.0705,0.0666,0,0,nothing
-0.0672,0.0666,0,0,nothing
-0.0614,0.1161,0,0,left_engine
-0.0541,0.1462,0,0,left_engine
-0.0468,0.1462,0,0,nothing
-0.0395,0.1462,0,0,nothing
-0.0341,0.1068,0,0,right_engine
-0.0312,0.0593,0,0,right_engine
-0.0298,0.0275,0,0,right_engine
-0.0307,-0.0187,0,0,right_engine
-0.0333,-0.0520,0,0,right_engine
-0.0382,-0.0981,0,0,right_engine
-0.0448,-0.1318,0,0,right_engine
-0.0536,-0.1756,0,0,right_engine
-0.0644,-0.2171,0,0,right_engine
-0.0753,-0.2171,0,0,nothing
-0.0861,-0.2171,0,0,nothing
-0.0970,-0.2171,0,0,nothing
-0.1079,-0.2171,0,0,nothing
-0.1187,-0.2171,0,0,nothing
-0.1296,-0.2171,0,0,nothing
-0.1404,-0.2171,1,0,nothing
-0.1333,0.1467,0,0,nothing
-0.1073,0.5188,0,0,nothing
-0.0627,0.8915,0,1,nothing
-0.0180,0.8914,0,1,nothing
0.0253,0.8663,0,1,nothing
0.0631,0.7572,0,1,right_engine
0.0944,0.6249,0,1,right_engine
0.0951,-0.1608,0,1,right_engine
0.0042,0.0417,0,0,nothing
0.0063,0.0417,0,0,nothing
0.0084,0.0417,0,0,nothing
0.0105,0.0417,0,0,nothing
0.0126,0.0416,0,0,nothing
0.0146,0.0416,0,0,nothing
0.0167,0.0416,0,0,nothing
0.0188,0.0416,0,0,nothing
0.0209,0.0416,0,0,nothing
0.0230,0.0416,0,0,nothing
0.0250,0.0416,0,0,nothing
0.0271,0.0416,0,0,nothing
0.0292,0.0416,0,0,nothing
0.0313,0.0416,0,0,nothing
0.0334,0.0416,0,0,nothing
0.0354,0.0416,0,0,nothing
0.0375,0.0416,0,0,nothing
0.0396,0.0416,0,0,nothing
0.0417,0.0416,0,0,nothing
0.0437,0.0416,0,0,nothing
0.0458,0.0416,0,0,nothing
0.0479,0.0415,0,0,nothing
0.0500,0.0415,0,0,nothing
0.0521,0.0415,0,0,nothing
0.0541,0.0415,0,0,nothing
0.0562,0.0415,0,0,nothing
0.0583,0.0415,0,0,nothing
0.0604,0.0415,0,0,nothing
0.0624,0.0415,0,0,nothing
0.0645,0.0415,0,0,nothing
0.0666,0.0415,0,0,nothing
0.0687,0.0415,0,0,nothing
0.0707,0.0415,0,0,nothing
0.0728,0.0415,0,0,nothing
0.0749,0.0415,0,0,nothing
0.0770,0.0415,0,0,nothing
0.0791,0.0415,0,0,nothing
0.0811,0.0415,0,0,nothing
0.0832,0.0415,0,0,nothing
0.0853,0.0415,0,0,nothing
0.0874,0.0415,0,0,nothing
0.0894,0.0415,0,0,nothing
0.0915,0.0415,0,0,nothing
0.0936,0.0415,0,0,nothing
0.0957,0.0415,0,0,nothing
0.0977,0.0415,0,0,nothing
0.0998,0.0415,0,0,nothing
0.1019,0.0415,0,0,nothing
0.1040,0.0415,0,0,nothing
0.1060,0.0415,0,0,nothing
0.1081,0.0415,0,0,nothing
0.1102,0.0415,0,0,nothing
0.1123,0.0415,0,0,nothing
0.1144,0.0415,0,0,nothing
0.1164,0.0415,0,0,nothing
0.1185,0.0415,0,0,nothing
0.1206,0.0415,0,0,nothing
0.1227,0.0415,0,0,nothing
0.1247,0.0415,0,0,nothing
0.1268,0.0415,0,0,nothing
0.1289,0.0415,0,0,nothing
0.1310,0.0415,0,0,nothing
0.1330,0.0415,0,0,nothing
0.1351,0.0415,0,0,nothing
0.1372,0.0415,0,0,nothing
0.1393,0.0415,0,0,nothing
0.1413,0.0415,0,0,nothing
0.1434,0.0415,0,0,nothing
0.1455,0.0415,0,0,nothing
0.1476,0.0415,0,0,nothing
0.1497,0.0415,0,0,nothing
0.1517,0.0415,0,0,nothing
0.1538,0.0415,0,0,nothing
0.1559,0.0415,0,0,nothing
0.1580,0.0415,0,0,nothing
0.1600,0.0415,0,0,nothing
0.1621,0.0415,0,0,nothing
0.1642,0.0415,0,0,nothing
0.1663,0.0415,0,0,nothing
0.1683,0.0415,0,0,nothing
0.1704,0.0415,0,0,nothing
0.1725,0.0415,0,0,nothing
0.1746,0.0415,0,0,nothing
0.1766,0.0415,0,0,nothing
0.1787,0.0415,0,0,nothing
0.1808,0.0415,0,0,nothing
0.1829,0.0415,0,0,nothing
0.1849,0.0415,0,0,nothing
0.1870,0.0415,0,0,nothing
0.1891,0.0415,0,0,nothing
0.1912,0.0415,0,0,nothing
0.1933,0.0415,0,0,nothing
0.1953,0.0415,0,0,nothing
0.1974,0.0415,0,0,nothing
0.1995,0.0415,0,0,nothing
0.2016,0.0415,0,0,nothing
0.2036,0.0415,0,0,nothing
0.2057,0.0415,0,0,nothing
0.2078,0.0415,0,0,nothing
0.2099,0.0415,0,0,nothing
0.2119,0.0415,0,0,nothing
0.2140,0.0415,0,0,nothing
0.2161,0.0415,0,0,nothing
0.2182,0.0415,0,0,nothing
0.2202,0.0415,0,0,nothing
0.2223,0.0415,0,0,nothing
0.2244,0.0415,0,0,nothing
0.2265,0.0415,0,0,nothing
0.2286,0.0415,0,0,nothing
0.2306,0.0415,0,0,nothing
0.2327,0.0415,0,0,nothing
0.2348,0.0415,0,0,nothing
0.2369,0.0415,0,0,nothing
0.2389,0.0415,0,0,nothing
0.2410,0.0415,0,0,nothing
0.2431,0.0415,0,0,nothing
0.2452,0.0415,0,0,nothing
0.2472,0.0415,0,0,nothing
0.2493,0.0415,0,0,nothing
0.2514,0.0415,0,0,nothing
0.2535,0.0415,0,0,nothing
0.2555,0.0415,0,0,nothing
0.2576,0.0415,0,0,nothing
0.2597,0.0415,0,0,nothing
0.2618,0.0415,0,0,nothing
0.2639,0.0415,0,0,nothing
0.2659,0.0415,0,0,nothing
0.2680,0.0415,0,0,nothing
0.2701,0.0415,0,0,nothing
0.2722,0.0415,0,0,nothing
0.2742,0.0415,0,0,nothing
0.2763,0.0415,0,0,nothing
0.2784,0.0415,0,0,nothing
0.2805,0.0415,0,0,nothing
0.2825,0.0415,0,0,nothing
0.2846,0.0415,0,0,nothing
0.2867,0.0415,0,0,nothing
0.2888,0.0415,0,0,nothing
0.2908,0.0415,0,0,nothing
0.2929,0.0415,0,0,nothing
0.2950,0.0415,0,0,nothing
0.2971,0.0415,0,0,nothing
0.2992,0.0415,0,0,nothing
0.3012,0.0415,0,0,nothing
0.3033,0.0415,0,0,nothing
0.3054,0.0415,0,0,nothing
0.3075,0.0415,0,0,nothing
0.3095,0.0415,0,0,nothing
0.3116,0.0415,0,0,nothing
0.3137,0.0415,0,0,nothing
0.3158,0.0415,0,0,nothing
0.3178,0.0415,0,0,nothing
0.3199,0.0415,0,0,nothing
0.3220,0.0415,0,0,nothing
0.3241,0.0415,0,0,nothing
0.3261,0.0415,0,0,nothing
0.3282,0.0415,0,0,nothing
0.3303,0.0415,0,0,nothing
0.3324,0.0415,0,0,nothing
0.3344,0.0415,0,0,nothing
0.3365,0.0415,0,0,nothing
0.3386,0.0415,0,0,nothing
0.3407,0.0415,0,0,nothing
0.3428,0.0415,0,0,nothing
0.3448,0.0415,0,0,nothing
0.3469,0.0415,0,0,nothing
0.3490,0.0415,0,0,nothing
0.3511,0.0415,0,0,nothing
0.3531,0.0415,0,0,nothing
0.3552,0.0415,0,0,nothing
0.3573,0.0415,0,0,nothing
0.3594,0.0415,0,0,nothing
0.3614,0.0415,0,0,nothing
0.3635,0.0415,0,0,nothing
0.3656,0.0415,0,0,nothing
0.3677,0.0415,0,0,nothing
0.3697,0.0415,0,0,nothing
0.3718,0.0415,0,0,nothing
0.3739,0.0415,0,0,nothing
0.3760,0.0415,0,0,nothing
0.3781,0.0415,0,0,nothing
0.3801,0.0415,0,0,nothing
0.3822,0.0415,0,0,nothing
0.3843,0.0415,0,0,nothing
0.3864,0.0415,0,0,nothing
0.3884,0.0415,0,0,nothing
0.3905,0.0415,0,0,nothing
0.3926,0.0415,0,0,nothing
0.3947,0.0415,0,0,nothing
0.3967,0.0415,0,0,nothing
0.3988,0.0415,0,0,nothing
0.4009,0.0415,0,0,nothing
0.4030,0.0415,0,0,nothing
0.4050,0.0415,0,0,nothing
0.4071,0.0415,0,0,nothing
0.4092,0.0415,0,0,nothing
0.4113,0.0415,0,0,nothing
0.4134,0.0415,0,0,nothing
0.4154,0.0415,0,0,nothing
0.4175,0.0415,0,0,nothing
0.4196,0.0415,0,0,nothing
0.4217,0.0415,0,0,nothing
0.4237,0.0415,0,0,nothing
0.4258,0.0415,0,0,nothing
0.4279,0.0415,0,0,nothing
0.4300,0.0415,0,0,nothing
0.4320,0.0415,0,0,nothing
0.4341,0.0415,0,0,nothing
0.4362,0.0415,0,0,nothing
0.4383,0.0415,0,0,nothing
0.4403,0.0415,0,0,nothing
0.4424,0.0415,0,0,nothing
0.4445,0.0415,0,0,nothing
0.4466,0.0415,0,0,nothing
0.4486,0.0415,0,0,nothing
0.4507,0.0415,0,0,nothing
0.4528,0.0415,0,0,nothing
0.4549,0.0415,0,0,nothing
0.4570,0.0415,0,0,nothing
0.4590,0.0415,0,0,nothing
0.4611,0.0415,0,0,nothing
0.4632,0.0415,0,0,nothing
0.4677,0.0903,0,0,left_engine
0.4743,0.1323,0,0,left_engine
0.4829,0.1707,0,0,left_engine
0.4933,0.2083,0,0,left_engine
0.5060,0.2542,0,0,left_engine
0.5205,0.2903,0,0,left_engine
0.5376,0.3422,0,0,left_engine
0.5566,0.3794,0,0,left_engine
0.5774,0.4167,0,0,left_engine
0.5982,0.4167,0,0,nothing
0.6191,0.4167,0,0,nothing
0.6399,0.4167,0,0,nothing
0.6607,0.4167,0,0,nothing
0.6816,0.4166,0,0,nothing
0.7024,0.4166,0,0,nothing
0.7232,0.4166,0,0,nothing
0.7441,0.4166,0,0,nothing
0.7624,0.3664,0,0,right_engine
0.7787,0.3260,0,0,right_engine
0.7933,0.2918,0,0,right_engine
0.8055,0.2452,0,0,right_engine
0.8154,0.1978,0,0,right_engine
0.8230,0.1525,0,0,right_engine
0.8285,0.1081,0,0,right_engine
0.8317,0.0648,0,0,right_engine
0.8328,0.0226,0,0,right_engine
0.8322,-0.0125,0,0,right_engine
0.8297,-0.0508,0,0,right_engine
0.8249,-0.0944,0,0,right_engine
0.8202,-0.0944,0,0,nothing
0.8155,-0.0944,0,0,nothing
0.8108,-0.0944,0,0,nothing
0.8042,-0.1322,0,0,right_engine
0.7950,-0.1829,0,0,right_engine
0.7859,-0.1829,0,0,nothing
0.7767,-0.1829,0,0,nothing
0.7676,-0.1829,0,0,nothing
0.7584,-0.1829,0,0,nothing
0.7493,-0.1829,0,0,nothing
0.7402,-0.1829,0,0,nothing
0.7310,-0.1833,0,0,main_engine
0.7219,-0.1817,0,0,main_engine
0.7128,-0.1822,0,0,main_engine
0.7034,-0.1877,0,0,main_engine
0.6935,-0.1982,0,0,main_engine
0.6832,-0.2053,0,0,main_engine
0.6736,-0.1937,0,0,main_engine
0.6643,-0.1853,0,0,main_engine
0.6548,-0.1888,0,0,main_engine
0.6461,-0.1750,0,0,main_engine
0.6376,-0.1699,0,0,main_engine
0.6289,-0.1731,0,0,main_engine
0.6205,-0.1695,0,0,main_engine
0.6119,-0.1718,0,0,main_engine
0.6027,-0.1827,0,0,main_engine
0.5932,-0.1906,0,0,main_engine
0.5839,-0.1867,0,0,main_engine
0.5744,-0.1903,0,0,main_engine
0.5653,-0.1812,0,0,main_engine
0.5563,-0.1808,0,0,main_engine
0.5472,-0.1814,0,0,main_engine
0.5387,-0.1701,0,0,main_engine
0.5303,-0.1674,0,0,main_engine
0.5218,-0.1706,0,0,main_engine
0.5127,-0.1826,0,0,main_engine
0.5028,-0.1964,0,0,main_engine
0.4926,-0.2055,0,0,main_engine
0.4830,-0.1923,0,0,main_engine
0.4731,-0.1966,0,0,main_engine
0.4631,-0.1999,0,0,main_engine
0.4531,-0.1999,0,0,nothing
0.4431,-0.1999,0,0,nothing
0.4331,-0.1999,0,0,nothing
0.4232,-0.1999,0,0,nothing
0.4107,-0.2490,0,0,right_engine
0.3961,-0.2928,0,0,right_engine
0.3793,-0.3347,0,0,right_engine
0.3605,-0.3774,0,0,right_engine
0.3397,-0.4156,0,0,right_engine
0.3168,-0.4585,0,0,right_engine
0.2914,-0.5074,0,0,right_engine
0.2636,-0.5550,0,0,right_engine
0.2342,-0.5894,0,0,right_engine
0.2026,-0.6313,0,0,right_engine
0.1687,-0.6778,0,0,right_engine
0.1327,-0.7211,0,0,right_engine
0.0950,-0.7530,0,0,right_engine
0.0558,-0.7839,0,0,right_engine
0.0142,-0.8321,0,0,right_engine
-0.0297,-0.8782,0,0,right_engine
-0.0757,-0.9192,0,0,right_engine
-0.1237,-0.9598,0,0,right_engine
-0.0138,-0.1362,0,0,nothing
-0.0206,-0.1361,0,0,nothing
-0.0274,-0.1361,0,0,nothing
-0.0342,-0.1360,0,0,nothing
-0.0410,-0.1360,0,0,nothing
-0.0478,-0.1360,0,0,nothing
-0.0546,-0.1360,0,0,nothing
-0.0614,-0.1359,0,0,nothing
-0.0682,-0.1359,0,0,nothing
-0.0749,-0.1359,0,0,nothing
-0.0817,-0.1359,0,0,nothing
-0.0885,-0.1359,0,0,nothing
-0.0953,-0.1358,0,0,nothing
-0.1021,-0.1358,0,0,nothing
-0.1089,-0.1358,0,0,nothing
-0.1157,-0.1358,0,0,nothing
-0.1225,-0.1358,0,0,nothing
-0.1293,-0.1357,0,0,nothing
-0.1361,-0.1357,0,0,nothing
-0.1428,-0.1357,0,0,nothing
-0.1496,-0.1357,0,0,nothing
-0.1564,-0.1357,0,0,nothing
-0.1632,-0.1356,0,0,nothing
-0.1700,-0.1356,0,0,nothing
-0.1767,-0.1356,0,0,nothing
-0.1835,-0.1356,0,0,nothing
-0.1903,-0.1356,0,0,nothing
-0.1971,-0.1356,0,0,nothing
-0.2039,-0.1356,0,0,nothing
-0.2106,-0.1356,0,0,nothing
-0.2153,-0.0937,0,0,left_engine
-0.2177,-0.0478,0,0,left_engine
-0.2178,-0.0009,0,0,left_engine
-0.2159,0.0376,0,0,left_engine
-0.2119,0.0802,0,0,left_engine
-0.2055,0.1267,0,0,left_engine
-0.1976,0.1590,0,0,left_engine
-0.1880,0.1918,0,0,left_engine
-0.1768,0.2243,0,0,left_engine
-0.1635,0.2659,0,0,left_engine
-0.1483,0.3041,0,0,left_engine
-0.1308,0.3485,0,0,left_engine
-0.1115,0.3866,0,0,left_engine
-0.0907,0.4171,0,0,left_engine
-0.0705,0.4022,0,0,main_engine
-0.0509,0.3932,0,0,main_engine
-0.0308,0.4024,0,0,main_engine
-0.0109,0.3980,0,0,main_engine
0.0097,0.4107,0,0,main_engine
0.0299,0.4056,0,0,main_engine
0.0502,0.4044,0,0,main_engine
0.0701,0.3996,0,0,main_engine
0.0895,0.3862,0,0,main_engine
0.1082,0.3744,0,0,main_engine
0.1277,0.3897,0,0,main_engine
0.1464,0.3749,0,0,main_engine
0.1651,0.3733,0,0,main_engine
0.1837,0.3735,0,0,main_engine
0.2029,0.3837,0,0,main_engine
0.2220,0.3825,0,0,main_engine
0.2429,0.4165,0,0,left_engine
0.2662,0.4660,0,0,left_engine
0.2911,0.4977,0,0,left_engine
0.3179,0.5378,0,0,left_engine
0.3448,0.5378,0,0,nothing
0.3739,0.5803,0,0,left_engine
0.4045,0.6136,0,0,left_engine
0.4371,0.6505,0,0,left_engine
0.4719,0.6964,0,0,left_engine
0.5090,0.7428,0,0,left_engine
0.5442,0.7048,0,0,right_engine
0.5769,0.6536,0,0,right_engine
0.6075,0.6109,0,0,right_engine
0.6364,0.5785,0,0,right_engine
0.6633,0.5381,0,0,right_engine
0.6902,0.5381,0,0,nothing
0.7151,0.4984,0,0,right_engine
0.7383,0.4643,0,0,right_engine
0.7592,0.4165,0,0,right_engine
0.7781,0.3791,0,0,right_engine
0.7953,0.3438,0,0,right_engine
0.8103,0.3000,0,0,right_engine
0.8233,0.2598,0,0,right_engine
0.8336,0.2064,0,0,right_engine
0.8439,0.2064,0,0,nothing
0.8543,0.2064,0,0,nothing
0.8646,0.2064,0,0,nothing
0.8749,0.2064,0,0,nothing
0.8852,0.2064,0,0,nothing
0.8955,0.2064,0,0,nothing
0.9059,0.2064,0,0,nothing
0.9134,0.1518,0,0,right_engine
0.9186,0.1022,0,0,right_engine
0.9218,0.0652,0,0,right_engine
0.9227,0.0181,0,0,right_engine
0.9218,-0.0175,0,0,right_engine
0.9184,-0.0679,0,0,right_engine
0.9131,-0.1079,0,0,right_engine
0.9077,-0.1079,0,0,nothing
0.9023,-0.1079,0,0,nothing
0.8962,-0.1210,0,0,main_engine
0.8905,-0.1151,0,0,main_engine
0.8842,-0.1249,0,0,main_engine
0.8781,-0.1227,0,0,main_engine
0.8724,-0.1141,0,0,main_engine
0.8671,-0.1064,0,0,main_engine
0.8616,-0.1100,0,0,main_engine
0.8559,-0.1140,0,0,main_engine
0.8508,-0.1013,0,0,main_engine
0.8464,-0.0882,0,0,main_engine
0.8426,-0.0750,0,0,main_engine
0.8397,-0.0594,0,0,main_engine
0.8374,-0.0450,0,0,main_engine
0.8352,-0.0442,0,0,main_engine
0.8329,-0.0464,0,0,main_engine
0.8310,-0.0369,0,0,main_engine
0.8292,-0.0369,0,0,nothing
0.8273,-0.0369,0,0,nothing
0.8255,-0.0369,0,0,nothing
0.8236,-0.0369,0,0,nothing
0.8216,-0.0412,0,0,main_engine
0.8194,-0.0445,0,0,main_engine
0.8177,-0.0328,0,0,main_engine
0.8168,-0.0187,0,0,main_engine
0.8158,-0.0187,0,0,nothing
0.8149,-0.0187,0,0,nothing
0.8140,-0.0187,0,0,nothing
0.8130,-0.0187,0,0,nothing
0.8121,-0.0187,0,0,nothing
0.8112,-0.0187,0,0,nothing
0.8102,-0.0187,0,0,nothing
0.8093,-0.0187,0,0,nothing
0.8083,-0.0187,0,0,nothing
0.8074,-0.0187,0,0,nothing
0.8065,-0.0187,0,0,nothing
0.8055,-0.0187,0,0,nothing
0.8046,-0.0187,0,0,nothing
0.8037,-0.0187,0,0,nothing
0.8029,-0.0144,0,0,main_engine
0.8017,-0.0241,0,0,main_engine
0.8005,-0.0241,0,0,nothing
0.7993,-0.0241,0,0,nothing
0.7981,-0.0241,0,0,nothing
0.7969,-0.0241,0,0,nothing
0.7957,-0.0241,0,0,nothing
0.7945,-0.0241,0,0,nothing
0.7933,-0.0241,0,0,nothing
0.7921,-0.0241,0,0,nothing
0.7909,-0.0241,0,0,nothing
0.7897,-0.0241,0,0,nothing
0.7885,-0.0241,0,0,nothing
0.7873,-0.0241,0,0,nothing
0.7861,-0.0241,0,0,nothing
0.7854,-0.0142,0,0,main_engine
0.7845,-0.0183,0,0,main_engine
0.7835,-0.0183,0,0,nothing
0.7826,-0.0183,0,0,nothing
0.7817,-0.0183,0,0,nothing
0.7808,-0.0183,0,0,nothing
0.7799,-0.0183,0,0,nothing
0.7790,-0.0183,0,0,nothing
0.7781,-0.0183,0,0,nothing
0.7771,-0.0183,0,0,nothing
0.7762,-0.0183,0,0,nothing
0.7771,0.0177,0,0,left_engine
0.7803,0.0647,0,0,left_engine
0.7860,0.1139,0,0,left_engine
0.7917,0.1139,0,0,nothing
0.7974,0.1139,0,0,nothing
0.8031,0.1139,0,0,nothing
0.8088,0.1139,0,0,nothing
0.8145,0.1139,0,0,nothing
0.8176,0.0618,0,0,right_engine
0.8184,0.0157,0,0,right_engine
0.8168,-0.0326,0,0,right_engine
0.8125,-0.0860,0,0,right_engine
0.8064,-0.1211,0,0,right_engine
0.8004,-0.1211,0,0,nothing
0.7943,-0.1211,0,0,nothing
0.7882,-0.1211,0,0,nothing
0.7822,-0.1211,0,0,nothing
0.7761,-0.1211,0,0,nothing
0.7701,-0.1211,0,0,nothing
0.7640,-0.1211,0,0,nothing
0.7580,-0.1211,0,0,nothing
0.7497,-0.1656,0,0,right_engine
0.7393,-0.2080,0,0,right_engine
0.7269,-0.2480,0,0,right_engine
0.7145,-0.2480,0,0,nothing
0.7021,-0.2480,0,0,nothing
0.6897,-0.2480,0,0,nothing
0.6773,-0.2480,0,0,nothing
0.6649,-0.2480,0,0,nothing
0.6525,-0.2480,0,0,nothing
0.6401,-0.2480,0,0,nothing
0.6277,-0.2480,0,0,nothing
0.6153,-0.2480,0,0,nothing
0.6029,-0.2480,0,0,nothing
0.5905,-0.2480,0,0,nothing
0.5781,-0.2480,0,0,nothing
0.5657,-0.2480,0,0,nothing
0.5533,-0.2480,0,0,nothing
0.5409,-0.2480,0,0,nothing
0.5285,-0.2480,0,0,nothing
0.5161,-0.2480,0,0,nothing
0.5015,-0.2924,0,0,right_engine
0.4847,-0.3353,0,0,right_engine
0.4662,-0.3703,0,0,right_engine
0.4461,-0.4019,0,0,right_engine
0.4236,-0.4493,0,0,right_engine
0.4012,-0.4493,0,0,nothing
0.3787,-0.4493,0,0,nothing
0.3562,-0.4493,0,0,nothing
0.3338,-0.4493,0,0,nothing
0.3090,-0.4949,0,0,right_engine
0.2827,-0.5274,0,0,right_engine
0.2563,-0.5274,0,0,nothing
0.2299,-0.5274,0,0,nothing
0.2036,-0.5273,0,0,nothing
0.1772,-0.5273,0,0,nothing
0.1508,-0.5273,0,0,nothing
0.1245,-0.5273,0,0,nothing
0.0981,-0.5272,0,0,nothing
0.0717,-0.5272,0,0,nothing
0.0454,-0.5272,0,0,nothing
0.0190,-0.5272,0,0,nothing
-0.0073,-0.5271,0,0,nothing
-0.0337,-0.5271,0,0,nothing
-0.0600,-0.5271,0,0,nothing
-0.0864,-0.5271,0,0,nothing
-0.1127,-0.5270,0,0,nothing
-0.1391,-0.5270,0,0,nothing
-0.1654,-0.5270,0,0,nothing
-0.1918,-0.5270,0,0,nothing
-0.2181,-0.5269,0,0,nothing
-0.2445,-0.5269,0,0,nothing
-0.2708,-0.5269,0,0,nothing
-0.2972,-0.5269,0,0,nothing
-0.3235,-0.5268,0,0,nothing
-0.3498,-0.5268,0,0,nothing
-0.3762,-0.5268,0,0,nothing
-0.4025,-0.5267,0,0,nothing
-0.4289,-0.5267,0,0,nothing
-0.4549,-0.5199,0,0,main_engine
-0.4816,-0.5351,0,0,main_engine
-0.5088,-0.5439,0,0,main_engine
-0.5360,-0.5439,0,0,nothing
-0.5632,-0.5439,0,0,nothing
-0.5904,-0.5439,0,0,nothing
-0.6176,-0.5438,0,0,nothing
-0.6448,-0.5438,0,0,nothing
-0.6720,-0.5438,0,0,nothing
-0.6992,-0.5438,0,0,nothing
-0.7263,-0.5437,0,0,nothing
-0.7535,-0.5437,0,0,nothing
-0.7807,-0.5437,0,0,nothing
-0.8079,-0.5436,0,0,nothing
-0.8351,-0.5436,0,0,nothing
-0.8623,-0.5436,0,0,nothing
-0.8876,-0.5071,0,0,left_engine
-0.9104,-0.4561,0,0,left_engine
-0.9311,-0.4141,0,0,left_engine
-0.9494,-0.3661,0,0,left_engine
-0.9659,-0.3292,0,0,left_engine
-0.9823,-0.3292,0,0,nothing
-0.9988,-0.3292,0,0,nothing
-1.0153,-0.3292,0,0,nothing
-1.0317,-0.3292,0,0,nothing
-1.0482,-0.3292,0,0,nothing
-1.0646,-0.3292,0,0,nothing
-1.0811,-0.3292,0,0,nothing
-1.0975,-0.3291,0,0,nothing
-1.1140,-0.3291,0,0,nothing
-1.1305,-0.3291,0,0,nothing
-1.1469,-0.3291,0,0,nothing
-1.1605,-0.2721,0,0,left_engine
-1.1714,-0.2182,0,0,left_engine
-1.1823,-0.2182,0,0,nothing
-1.1932,-0.2182,0,0,nothing
-1.2042,-0.2182,0,0,nothing
-1.2180,-0.2764,0,0,right_engine
-1.2345,-0.3299,0,0,right_engine
-1.2534,-0.3795,0,0,right_engine
-1.2743,-0.4170,0,0,right_engine
-1.2971,-0.4569,0,0,right_engine
-1.3227,-0.5112,0,0,right_engine
-1.3507,-0.5603,0,0,right_engine
-1.3813,-0.6113,0,0,right_engine
-1.4119,-0.6113,0,0,nothing
-1.4454,-0.6710,0,0,right_engine
-1.4818,-0.7285,0,0,right_engine
-1.5211,-0.7851,0,0,right_engine
-1.5624,-0.8258,0,0,right_engine
-1.6066,-0.8844,0,0,right_engine
-1.6537,-0.9431,0,0,right_engine
-1.7009,-0.9429,0,0,nothing
-1.7480,-0.9428,0,0,nothing
-1.7978,-0.9958,0,0,right_engine
-1.8506,-1.0550,0,0,right_engine
-1.9061,-1.1115,0,0,right_engine
-1.9644,-1.1644,0,0,right_engine
-2.0247,-1.2065,0,0,right_engine
-2.0850,-1.2062,0,0,nothing
-2.1453,-1.2059,0,0,nothing
-2.2080,-1.2533,0,0,right_engine
-2.2728,-1.2973,0,0,right_engine
-2.3399,-1.3422,0,0,right_engine
-2.4091,-1.3844,0,0,right_engine
-2.4801,-1.4200,0,0,right_engine
-2.5537,-1.4716,0,0,right_engine
-2.6297,-1.5194,0,0,right_engine
-2.7076,-1.5571,0,0,right_engine
-2.7875,-1.5987,0,0,right_engine
-2.8697,-1.6439,0,0,right_engine
-2.9537,-1.6798,0,0,right_engine
-3.0396,-1.7189,0,0,right_engine
-3.1272,-1.7510,0,0,right_engine
-3.2168,-1.7922,0,0,right_engine
-3.3086,-1.8373,0,0,right_engine
-3.4025,-1.8771,0,0,right_engine
-3.4979,-1.9089,0,0,right_engine
-3.5949,-1.9398,0,0,right_engine
-3.6939,-1.9802,0,0,right_engine
-3.7949,-2.0198,0,0,right_engine
-3.8979,-2.0600,0,0,right_engine
-4.0028,-2.0979,0,0,right_engine
-4.1095,-2.1340,0,0,right_engine
-4.2189,-2.1875,0,0,right_engine
-4.3282,-2.1857,0,0,nothing
-4.4374,-2.1839,0,0,nothing
-4.5465,-2.1821,0,0,nothing
-4.6555,-2.1803,0,0,nothing
-4.7644,-2.1785,0,0,nothing
-4.8732,-2.1768,0,0,nothing
-4.9820,-2.1750,0,0,nothing
-5.0907,-2.1732,0,0,nothing
-5.1992,-2.1715,0,0,nothing
-5.3077,-2.1697,0,0,nothing
-5.4161,-2.1680,0,0,nothing
-5.5244,-2.1662,0,0,nothing
-5.6319,-2.1495,0,0,main_engine
-5.7391,-2.1435,0,0,main_engine
-5.8463,-2.1438,0,0,main_engine
-5.9528,-2.1304,0,0,main_engine
-6.0584,-2.1139,0,0,main_engine
-6.1634,-2.1009,0,0,main_engine
-6.2679,-2.0926,0,0,main_engine
-6.3727,-2.0973,0,0,main_engine
-6.4777,-2.1004,0,0,main_engine
-6.5819,-2.0842,0,0,main_engine
-6.6864,-2.0931,0,0,main_engine
-6.7917,-2.1066,0,0,main_engine
-6.8971,-2.1088,0,0,main_engine
-7.0025,-2.1093,0,0,main_engine
-7.1052,-2.0550,0,0,left_engine
-7.2056,-2.0104,0,0,left_engine
-7.3038,-1.9644,0,0,left_engine
-7.3994,-1.9124,0,0,left_engine
-7.4922,-1.8575,0,0,left_engine
-7.5825,-1.8066,0,0,left_engine
-7.6702,-1.7556,0,0,left_engine
-7.7555,-1.7065,0,0,left_engine
-7.8384,-1.6579,0,0,left_engine
-7.9191,-1.6142,0,0,left_engine
-7.9970,-1.5588,0,0,left_engine
-8.0724,-1.5099,0,0,left_engine
-8.1450,-1.4515,0,0,left_engine
-8.2153,-1.4068,0,0,left_engine
-8.2829,-1.3526,0,0,left_engine
-8.3482,-1.3057,0,0,left_engine
-8.4134,-1.3053,0,0,nothing
-8.4787,-1.3049,0,0,nothing
-8.5439,-1.3045,0,0,nothing
-8.6091,-1.3041,0,0,nothing
-8.6743,-1.3038,0,0,nothing
-8.7394,-1.3034,0,0,nothing
-8.8045,-1.3030,0,0,nothing
-8.8697,-1.3026,0,0,nothing
-8.9348,-1.3022,0,0,nothing
-8.9998,-1.3019,0,0,nothing
-9.0649,-1.3015,0,0,nothing
-9.1299,-1.3011,0,0,nothing
-9.1950,-1.3007,0,0,nothing
-9.2600,-1.3003,0,0,nothing
-9.3249,-1.3000,0,0,nothing
-9.3899,-1.2996,0,0,nothing
-9.4549,-1.2992,0,0,nothing
-9.5198,-1.2988,0,0,nothing
-9.5847,-1.2985,0,0,nothing
-9.6496,-1.2981,0,0,nothing
-9.7145,-1.2977,0,0,nothing
-9.7793,-1.2973,0,0,nothing
-9.8441,-1.2969,0,0,nothing
-9.9090,-1.2966,0,0,nothing
-9.9738,-1.2962,0,0,nothing
-10.0385,-1.2958,0,0,nothing
-10.1033,-1.2954,0,0,nothing
-10.1680,-1.2951,0,0,nothing
-10.2328,-1.2947,0,0,nothing
-10.2975,-1.2943,0,0,nothing
-10.3621,-1.2940,0,0,nothing
-0.0020,-0.0203,0,0,nothing
-0.0031,-0.0203,0,0,nothing
-0.0041,-0.0203,0,0,nothing
-0.0051,-0.0203,0,0,nothing
-0.0061,-0.0203,0,0,nothing
-0.0071,-0.0203,0,0,nothing
-0.0081,-0.0203,0,0,nothing
-0.0091,-0.0203,0,0,nothing
-0.0102,-0.0203,0,0,nothing
-0.0112,-0.0203,0,0,nothing
-0.0122,-0.0203,0,0,nothing
-0.0132,-0.0203,0,0,nothing
-0.0142,-0.0203,0,0,nothing
-0.0152,-0.0203,0,0,nothing
-0.0162,-0.0202,0,0,nothing
-0.0172,-0.0202,0,0,nothing
-0.0183,-0.0202,0,0,nothing
-0.0193,-0.0202,0,0,nothing
-0.0207,-0.0278,0,0,main_engine
-0.0222,-0.0315,0,0,main_engine
-0.0243,-0.0408,0,0,main_engine
-0.0263,-0.0408,0,0,nothing
-0.0284,-0.0408,0,0,nothing
-0.0304,-0.0408,0,0,nothing
-0.0324,-0.0408,0,0,nothing
-0.0345,-0.0408,0,0,nothing
-0.0365,-0.0408,0,0,nothing
-0.0386,-0.0408,0,0,nothing
-0.0406,-0.0408,0,0,nothing
-0.0426,-0.0408,0,0,nothing
-0.0447,-0.0408,0,0,nothing
-0.0467,-0.0408,0,0,nothing
-0.0488,-0.0408,0,0,nothing
-0.0508,-0.0408,0,0,nothing
-0.0528,-0.0408,0,0,nothing
-0.0549,-0.0408,0,0,nothing
-0.0569,-0.0408,0,0,nothing
-0.0590,-0.0408,0,0,nothing
-0.0610,-0.0408,0,0,nothing
-0.0630,-0.0408,0,0,nothing
-0.0651,-0.0408,0,0,nothing
-0.0671,-0.0408,0,0,nothing
-0.0692,-0.0408,0,0,nothing
-0.0712,-0.0408,0,0,nothing
-0.0732,-0.0408,0,0,nothing
-0.0753,-0.0408,0,0,nothing
-0.0773,-0.0408,0,0,nothing
-0.0794,-0.0408,0,0,nothing
-0.0814,-0.0408,0,0,nothing
-0.0834,-0.0408,0,0,nothing
-0.0855,-0.0408,0,0,nothing
-0.0875,-0.0408,0,0,nothing
-0.0896,-0.0408,0,0,nothing
-0.0916,-0.0408,0,0,nothing
-0.0936,-0.0408,0,0,nothing
-0.0957,-0.0408,0,0,nothing
-0.0977,-0.0408,0,0,nothing
-0.0998,-0.0408,0,0,nothing
-0.1018,-0.0408,0,0,nothing
-0.1038,-0.0408,0,0,nothing
-0.1059,-0.0408,0,0,nothing
-0.1079,-0.0408,0,0,nothing
-0.1100,-0.0408,0,0,nothing
-0.1120,-0.0408,0,0,nothing
-0.1140,-0.0408,0,0,nothing
-0.1161,-0.0408,0,0,nothing
-0.1181,-0.0408,0,0,nothing
-0.1202,-0.0408,0,0,nothing
-0.1222,-0.0408,0,0,nothing
-0.1242,-0.0408,0,0,nothing
-0.1263,-0.0408,0,0,nothing
-0.1283,-0.0408,0,0,nothing
-0.1304,-0.0408,0,0,nothing
-0.1324,-0.0408,0,0,nothing
-0.1344,-0.0408,0,0,nothing
-0.1365,-0.0408,0,0,nothing
-0.1385,-0.0408,0,0,nothing
-0.1406,-0.0408,0,0,nothing
-0.1426,-0.0408,0,0,nothing
-0.1446,-0.0408,0,0,nothing
-0.1467,-0.0408,0,0,nothing
-0.1487,-0.0408,0,0,nothing
-0.1508,-0.0408,0,0,nothing
-0.1528,-0.0408,0,0,nothing
-0.1548,-0.0408,0,0,nothing
-0.1569,-0.0408,0,0,nothing
-0.1589,-0.0408,0,0,nothing
-0.1610,-0.0408,0,0,nothing
-0.1630,-0.0408,0,0,nothing
-0.1650,-0.0408,0,0,nothing
-0.1671,-0.0408,0,0,nothing
-0.1691,-0.0408,0,0,nothing
-0.1712,-0.0408,0,0,nothing
-0.1732,-0.0408,0,0,nothing
-0.1752,-0.0408,0,0,nothing
-0.1773,-0.0408,0,0,nothing
-0.1793,-0.0408,0,0,nothing
-0.1814,-0.0408,0,0,nothing
-0.1834,-0.0408,0,0,nothing
-0.1854,-0.0408,0,0,nothing
-0.1875,-0.0408,0,0,nothing
-0.1895,-0.0408,0,0,nothing
-0.1916,-0.0408,0,0,nothing
-0.1936,-0.0408,0,0,nothing
-0.1956,-0.0408,0,0,nothing
-0.1977,-0.0408,0,0,nothing
-0.1997,-0.0408,0,0,nothing
-0.2018,-0.0408,0,0,nothing
-0.2038,-0.0408,0,0,nothing
-0.2058,-0.0408,0,0,nothing
-0.2079,-0.0408,0,0,nothing
-0.2099,-0.0408,0,0,nothing
-0.2120,-0.0408,0,0,nothing
-0.2140,-0.0408,0,0,nothing
-0.2160,-0.0408,0,0,nothing
-0.2181,-0.0408,0,0,nothing
-0.2201,-0.0408,0,0,nothing
-0.2222,-0.0408,0,0,nothing
-0.2250,-0.0562,0,0,main_engine
-0.2279,-0.0581,0,0,main_engine
-0.2300,-0.0431,0,0,main_engine
-0.2328,-0.0545,0,0,main_engine
-0.2348,-0.0409,0,0,main_engine
-0.2363,-0.0298,0,0,main_engine
-0.2386,-0.0466,0,0,main_engine
-0.2417,-0.0616,0,0,main_engine
-0.2440,-0.0467,0,0,main_engine
-0.2471,-0.0618,0,0,main_engine
-0.2507,-0.0719,0,0,main_engine
-0.2543,-0.0722,0,0,main_engine
-0.2580,-0.0722,0,0,nothing
-0.2616,-0.0722,0,0,nothing
-0.2652,-0.0722,0,0,nothing
-0.2688,-0.0722,0,0,nothing
-0.2724,-0.0722,0,0,nothing
-0.2760,-0.0722,0,0,nothing
-0.2796,-0.0722,0,0,nothing
-0.2832,-0.0722,0,0,nothing
-0.2868,-0.0722,0,0,nothing
-0.2904,-0.0722,0,0,nothing
-0.2940,-0.0722,0,0,nothing
-0.2976,-0.0722,0,0,nothing
-0.3013,-0.0722,0,0,nothing
-0.3049,-0.0722,0,0,nothing
-0.3085,-0.0722,0,0,nothing
-0.3121,-0.0722,0,0,nothing
-0.3157,-0.0722,0,0,nothing
-0.3193,-0.0722,0,0,nothing
-0.3229,-0.0722,0,0,nothing
-0.3265,-0.0722,0,0,nothing
-0.3301,-0.0722,0,0,nothing
-0.3337,-0.0722,0,0,nothing
-0.3373,-0.0722,0,0,nothing
-0.3409,-0.0722,0,0,nothing
-0.3446,-0.0722,0,0,nothing
-0.3482,-0.0722,0,0,nothing
-0.3518,-0.0722,0,0,nothing
-0.3554,-0.0722,0,0,nothing
-0.3590,-0.0722,0,0,nothing
-0.3626,-0.0722,0,0,nothing
-0.3662,-0.0722,0,0,nothing
-0.3682,-0.0398,0,0,left_engine
-0.3677,0.0100,0,0,left_engine
-0.3647,0.0608,0,0,left_engine
-0.3598,0.0969,0,0,left_engine
-0.3526,0.1442,0,0,left_engine
-0.3436,0.1791,0,0,left_engine
-0.3322,0.2283,0,0,left_engine
-0.3187,0.2712,0,0,left_engine
-0.3033,0.3075,0,0,left_engine
-0.2858,0.3497,0,0,left_engine
-0.2660,0.3960,0,0,left_engine
-0.2441,0.4381,0,0,left_engine
-0.2222,0.4381,0,0,nothing
-0.2003,0.4381,0,0,nothing
-0.1784,0.4381,0,0,nothing
-0.1565,0.4380,0,0,nothing
-0.1346,0.4380,0,0,nothing
-0.1127,0.4380,0,0,nothing
-0.0908,0.4380,0,0,nothing
-0.0689,0.4380,0,0,nothing
-0.0470,0.4380,0,0,nothing
-0.0251,0.4380,0,0,nothing
-0.0032,0.4379,0,0,nothing
0.0163,0.3892,0,0,right_engine
0.0341,0.3559,0,0,right_engine
0.0499,0.3161,0,0,right_engine
0.0635,0.2722,0,0,right_engine
0.0750,0.2315,0,0,right_engine
0.0850,0.1989,0,0,right_engine
0.0926,0.1516,0,0,right_engine
0.1002,0.1516,0,0,nothing
0.1077,0.1516,0,0,nothing
0.1153,0.1516,0,0,nothing
0.1229,0.1516,0,0,nothing
0.1305,0.1516,0,0,nothing
0.1363,0.1172,0,0,right_engine
0.1406,0.0853,0,0,right_engine
0.1428,0.0451,0,0,right_engine
0.1433,0.0092,0,0,right_engine
0.1417,-0.0320,0,0,right_engine
0.1385,-0.0646,0,0,right_engine
0.1330,-0.1095,0,0,right_engine
0.1275,-0.1095,0,0,nothing
0.1220,-0.1095,0,0,nothing
0.1166,-0.1095,0,0,nothing
0.1092,-0.1479,0,0,right_engine
0.0995,-0.1927,0,0,right_engine
0.0881,-0.2284,0,0,right_engine
0.0748,-0.2657,0,0,right_engine
0.0597,-0.3028,0,0,right_engine
0.0446,-0.3028,0,0,nothing
0.0294,-0.3028,0,0,nothing
0.0143,-0.3028,0,0,nothing
-0.0009,-0.3028,0,0,nothing
-0.0160,-0.3028,0,0,nothing
-0.0311,-0.3028,0,0,nothing
-0.0463,-0.3028,0,0,nothing
-0.0614,-0.3028,0,0,nothing
-0.0770,-0.3107,0,0,main_engine
-0.0920,-0.3013,0,0,main_engine
-0.1071,-0.3011,0,0,main_engine
-0.1221,-0.3011,0,0,nothing
-0.1372,-0.3011,0,0,nothing
-0.1522,-0.3011,0,0,nothing
-0.1673,-0.3011,0,0,nothing
-0.1816,-0.2870,0,0,main_engine
-0.1955,-0.2781,0,0,main_engine
-0.2091,-0.2708,0,0,main_engine
-0.2218,-0.2553,0,0,main_engine
-0.2354,-0.2703,0,0,main_engine
-0.2489,-0.2703,0,0,nothing
-0.2624,-0.2703,0,0,nothing
-0.2759,-0.2703,0,0,nothing
-0.2894,-0.2703,0,0,nothing
-0.3029,-0.2703,0,0,nothing
-0.3165,-0.2703,0,0,nothing
-0.3300,-0.2703,0,0,nothing
-0.3435,-0.2703,0,0,nothing
-0.3570,-0.2703,0,0,nothing
-0.3705,-0.2703,0,0,nothing
-0.3840,-0.2703,0,0,nothing
-0.3975,-0.2703,0,0,nothing
-0.4111,-0.2703,0,0,nothing
-0.4246,-0.2703,0,0,nothing
-0.4381,-0.2703,0,0,nothing
-0.4516,-0.2703,0,0,nothing
-0.4651,-0.2703,0,0,nothing
-0.4810,-0.3178,0,0,right_engine
-0.4988,-0.3552,0,0,right_engine
-0.5189,-0.4027,0,0,right_engine
-0.5407,-0.4352,0,0,right_engine
-0.5644,-0.4747,0,0,right_engine
-0.5903,-0.5179,0,0,right_engine
-0.6162,-0.5179,0,0,nothing
-0.6421,-0.5179,0,0,nothing
-0.6680,-0.5178,0,0,nothing
-0.6939,-0.5178,0,0,nothing
-0.7198,-0.5178,0,0,nothing
-0.7438,-0.4817,0,0,left_engine
-0.7655,-0.4332,0,0,left_engine
-0.7850,-0.3908,0,0,left_engine
-0.8027,-0.3525,0,0,left_engine
-0.8184,-0.3144,0,0,left_engine
-0.8314,-0.2598,0,0,left_engine
-0.8417,-0.2069,0,0,left_engine
-0.8498,-0.1607,0,0,left_engine
-0.8555,-0.1145,0,0,left_engine
-0.8586,-0.0633,0,0,left_engine
-0.8600,-0.0261,0,0,left_engine
-0.8593,0.0131,0,0,left_engine
-0.8561,0.0643,0,0,left_engine
-0.8500,0.1210,0,0,left_engine
-0.8411,0.1777,0,0,left_engine
-0.8323,0.1777,0,0,nothing
-0.8234,0.1777,0,0,nothing
-0.8145,0.1777,0,0,nothing
-0.8036,0.2180,0,0,left_engine
-0.7905,0.2618,0,0,left_engine
-0.7757,0.2963,0,0,left_engine
-0.7586,0.3418,0,0,left_engine
-0.7396,0.3805,0,0,left_engine
-0.7179,0.4343,0,0,left_engine
-0.6943,0.4704,0,0,left_engine
-0.6690,0.5063,0,0,left_engine
-0.6418,0.5449,0,0,left_engine
-0.6145,0.5448,0,0,nothing
-0.5873,0.5448,0,0,nothing
-0.5601,0.5448,0,0,nothing
-0.5328,0.5448,0,0,nothing
-0.5056,0.5447,0,0,nothing
-0.4783,0.5447,0,0,nothing
-0.4511,0.5447,0,0,nothing
-0.4262,0.4987,0,0,right_engine
-0.4036,0.4523,0,0,right_engine
-0.3830,0.4107,0,0,right_engine
-0.3650,0.3612,0,0,right_engine
-0.3487,0.3246,0,0,right_engine
-0.3343,0.2886,0,0,right_engine
-0.3217,0.2513,0,0,right_engine
-0.3115,0.2042,0,0,right_engine
-0.3035,0.1599,0,0,right_engine
-0.2934,0.2029,0,0,left_engine
-0.2811,0.2450,0,0,left_engine
-0.2666,0.2902,0,0,left_engine
-0.2500,0.3329,0,0,left_engine
-0.2316,0.3686,0,0,left_engine
-0.2131,0.3686,0,0,nothing
-0.1947,0.3686,0,0,nothing
-0.1763,0.3686,0,0,nothing
-0.1600,0.3245,0,0,right_engine
-0.1453,0.2945,0,0,right_engine
-0.1324,0.2585,0,0,right_engine
-0.1218,0.2120,0,0,right_engine
-0.1133,0.1696,0,0,right_engine
-0.1065,0.1358,0,0,right_engine
-0.1019,0.0931,0,0,right_engine
-0.0972,0.0931,0,0,nothing
-0.0926,0.0931,0,0,nothing
-0.0879,0.0931,0,0,nothing
-0.0833,0.0931,0,0,nothing
-0.0786,0.0931,0,0,nothing
-0.0740,0.0931,0,0,nothing
-0.0693,0.0931,0,0,nothing
-0.0648,0.0900,0,0,main_engine
-0.0600,0.0970,0,0,main_engine
-0.0557,0.0849,0,0,main_engine
-0.0509,0.0959,0,0,main_engine
-0.0456,0.1071,0,0,main_engine
-0.0402,0.1071,0,0,nothing
-0.0349,0.1071,0,0,nothing
-0.0295,0.1071,0,0,nothing
-0.0241,0.1071,0,0,nothing
-0.0188,0.1071,0,0,nothing
-0.0134,0.1071,0,0,nothing
-0.0081,0.1071,0,0,nothing
-0.0027,0.1071,0,0,nothing
0.0026,0.1071,0,0,nothing
0.0080,0.1071,0,0,nothing
0.0133,0.1071,0,0,nothing
0.0187,0.1071,0,0,nothing
0.0240,0.1071,0,0,nothing
0.0294,0.1071,0,0,nothing
0.0347,0.1071,0,0,nothing
0.0401,0.1071,0,0,nothing
0.0454,0.1071,0,0,nothing
0.0316,-0.2764,0,1,nothing
-0.0000,-0.6331,0,1,right_engine
-0.0326,-0.6508,0,1,right_engine
-0.0675,-0.6994,0,0,right_engine
-0.1046,-0.7405,0,0,right_engine
-0.1434,-0.7764,0,0,right_engine
-0.1822,-0.7763,0,0,nothing
-0.2210,-0.7763,0,0,nothing
-0.2598,-0.7762,0,0,nothing
-0.2986,-0.7761,0,0,nothing
-0.3374,-0.7760,0,0,nothing
-0.3762,-0.7759,0,0,nothing
-0.4150,-0.7759,0,0,nothing
-0.4538,-0.7758,0,0,nothing
-0.4926,-0.7757,0,0,nothing
-0.5314,-0.7756,0,0,nothing
-0.5701,-0.7755,0,0,nothing
-0.6089,-0.7755,0,0,nothing
-0.6477,-0.7754,0,0,nothing
-0.6865,-0.7753,0,0,nothing
-0.7252,-0.7752,0,0,nothing
-0.7640,-0.7751,0,0,nothing
-0.8027,-0.7751,0,0,nothing
-0.8415,-0.7750,0,0,nothing
-0.8802,-0.7749,0,0,nothing
-0.0157,-0.1549,0,0,nothing
-0.0234,-0.1548,0,0,nothing
-0.0311,-0.1548,0,0,nothing
-0.0389,-0.1548,0,0,nothing
-0.0466,-0.1548,0,0,nothing
-0.0543,-0.1547,0,0,nothing
-0.0621,-0.1547,0,0,nothing
-0.0698,-0.1547,0,0,nothing
-0.0776,-0.1547,0,0,nothing
-0.0853,-0.1546,0,0,nothing
-0.0930,-0.1546,0,0,nothing
-0.1007,-0.1546,0,0,nothing
-0.1085,-0.1546,0,0,nothing
-0.1162,-0.1545,0,0,nothing
-0.1239,-0.1545,0,0,nothing
-0.1316,-0.1545,0,0,nothing
-0.1394,-0.1545,0,0,nothing
-0.1471,-0.1544,0,0,nothing
-0.1548,-0.1544,0,0,nothing
-0.1625,-0.1544,0,0,nothing
-0.1702,-0.1544,0,0,nothing
-0.1780,-0.1544,0,0,nothing
-0.1857,-0.1543,0,0,nothing
-0.1934,-0.1543,0,0,nothing
-0.2015,-0.1623,0,0,nothing
-0.2092,-0.1543,0,0,nothing
-0.2169,-0.1543,0,0,nothing
-0.2247,-0.1543,0,0,nothing
-0.2324,-0.1543,0,0,nothing
-0.2401,-0.1543,0,0,nothing
-0.2478,-0.1543,0,0,nothing
-0.2555,-0.1543,0,0,nothing
-0.2632,-0.1543,0,0,nothing
-0.2709,-0.1543,0,0,nothing
-0.2786,-0.1543,0,0,nothing
-0.2864,-0.1543,0,0,nothing
-0.2941,-0.1543,0,0,nothing
-0.3018,-0.1543,0,0,nothing
-0.3095,-0.1543,0,0,nothing
-0.3172,-0.1543,0,0,nothing
-0.3249,-0.1543,0,0,nothing
-0.3326,-0.1543,0,0,nothing
-0.3404,-0.1543,0,0,nothing
-0.3481,-0.1543,0,0,nothing
-0.3558,-0.1543,0,0,nothing
-0.3635,-0.1543,0,0,nothing
-0.3712,-0.1543,0,0,nothing
-0.3789,-0.1543,0,0,nothing
-0.3866,-0.1543,0,0,nothing
-0.3943,-0.1543,0,0,nothing
-0.4021,-0.1543,0,0,nothing
-0.4098,-0.1543,0,0,nothing
-0.4175,-0.1543,0,0,nothing
-0.4252,-0.1543,0,0,nothing
-0.4329,-0.1543,0,0,nothing
-0.4406,-0.1543,0,0,nothing
-0.4483,-0.1543,0,0,nothing
-0.4561,-0.1543,0,0,nothing
-0.4638,-0.1543,0,0,nothing
-0.4715,-0.1543,0,0,nothing
-0.4792,-0.1543,0,0,nothing
-0.4869,-0.1543,0,0,nothing
-0.4946,-0.1543,0,0,nothing
-0.5023,-0.1543,0,0,nothing
-0.5100,-0.1543,0,0,nothing
-0.5178,-0.1543,0,0,nothing
-0.5255,-0.1543,0,0,nothing
-0.5332,-0.1543,0,0,nothing
-0.5409,-0.1543,0,0,nothing
-0.5486,-0.1543,0,0,nothing
-0.5563,-0.1542,0,0,nothing
-0.5640,-0.1542,0,0,nothing
-0.5717,-0.1542,0,0,nothing
-0.5795,-0.1542,0,0,nothing
-0.5872,-0.1542,0,0,nothing
-0.5949,-0.1542,0,0,nothing
-0.6026,-0.1542,0,0,nothing
-0.6103,-0.1542,0,0,nothing
-0.6180,-0.1542,0,0,nothing
-0.6257,-0.1542,0,0,nothing
-0.6334,-0.1542,0,0,nothing
-0.6412,-0.1542,0,0,nothing
-0.6489,-0.1542,0,0,nothing
-0.6566,-0.1542,0,0,nothing
-0.6643,-0.1542,0,0,nothing
-0.6720,-0.1542,0,0,nothing
-0.6797,-0.1542,0,0,nothing
-0.6874,-0.1542,0,0,nothing
-0.6951,-0.1542,0,0,nothing
-0.7028,-0.1542,0,0,nothing
-0.7106,-0.1542,0,0,nothing
-0.7183,-0.1542,0,0,nothing
-0.7260,-0.1542,0,0,nothing
-0.7337,-0.1542,0,0,nothing
-0.7433,-0.1925,0,0,right_engine
-0.7551,-0.2365,0,0,right_engine
-0.7694,-0.2852,0,0,right_engine
-0.7837,-0.2852,0,0,nothing
-0.7979,-0.2852,0,0,nothing
-0.8122,-0.2852,0,0,nothing
-0.8264,-0.2852,0,0,nothing
-0.8381,-0.2325,0,0,left_engine
-0.8477,-0.1925,0,0,left_engine
-0.8546,-0.1381,0,0,left_engine
-0.8588,-0.0833,0,0,left_engine
-0.8609,-0.0431,0,0,left_engine
-0.8604,0.0111,0,0,left_engine
-0.8575,0.0577,0,0,left_engine
-0.8519,0.1121,0,0,left_engine
-0.8435,0.1666,0,0,left_engine
-0.8326,0.2186,0,0,left_engine
-0.8192,0.2684,0,0,left_engine
-0.8031,0.3224,0,0,left_engine
-0.7848,0.3659,0,0,left_engine
-0.7644,0.4074,0,0,left_engine
-0.7421,0.4469,0,0,left_engine
-0.7175,0.4908,0,0,left_engine
-0.6912,0.5260,0,0,left_engine
-0.6624,0.5760,0,0,left_engine
-0.6312,0.6250,0,0,left_engine
-0.5974,0.6747,0,0,left_engine
-0.5612,0.7249,0,0,left_engine
-0.5228,0.7683,0,0,left_engine
-0.4844,0.7682,0,0,nothing
-0.4459,0.7682,0,0,nothing
-0.4075,0.7681,0,0,nothing
-0.3691,0.7680,0,0,nothing
-0.3307,0.7679,0,0,nothing
-0.2924,0.7678,0,0,nothing
-0.2540,0.7678,0,0,nothing
-0.2156,0.7677,0,0,nothing
-0.1772,0.7676,0,0,nothing
-0.1388,0.7675,0,0,nothing
-0.1005,0.7675,0,0,nothing
-0.0621,0.7674,0,0,nothing
-0.0237,0.7673,0,0,nothing
0.0146,0.7672,0,0,nothing
0.0530,0.7671,0,0,nothing
0.0914,0.7671,0,0,nothing
0.1297,0.7670,0,0,nothing
0.1695,0.7970,0,0,left_engine
0.2116,0.8413,0,0,left_engine
0.2552,0.8715,0,0,left_engine
0.3008,0.9119,0,0,left_engine
0.3464,0.9118,0,0,nothing
0.3918,0.9089,0,0,main_engine
0.4380,0.9245,0,0,main_engine
0.4846,0.9319,0,0,main_engine
0.5315,0.9375,0,0,main_engine
0.5780,0.9295,0,0,main_engine
0.6246,0.9324,0,0,main_engine
0.6710,0.9280,0,0,main_engine
0.7172,0.9244,0,0,main_engine
-0.0092,-0.0908,0,0,nothing
-0.0137,-0.0907,0,0,nothing
-0.0182,-0.0907,0,0,nothing
-0.0228,-0.0907,0,0,nothing
-0.0273,-0.0907,0,0,nothing
-0.0318,-0.0907,0,0,nothing
-0.0364,-0.0907,0,0,nothing
-0.0409,-0.0907,0,0,nothing
-0.0454,-0.0906,0,0,nothing
-0.0500,-0.0906,0,0,nothing
-0.0545,-0.0906,0,0,nothing
-0.0590,-0.0906,0,0,nothing
-0.0636,-0.0906,0,0,nothing
-0.0681,-0.0906,0,0,nothing
-0.0726,-0.0906,0,0,nothing
-0.0771,-0.0905,0,0,nothing
-0.0817,-0.0905,0,0,nothing
-0.0862,-0.0905,0,0,nothing
-0.0907,-0.0905,0,0,nothing
-0.0953,-0.0905,0,0,nothing
-0.0998,-0.0905,0,0,nothing
-0.1043,-0.0905,0,0,nothing
-0.1088,-0.0905,0,0,nothing
-0.1133,-0.0904,0,0,nothing
-0.1179,-0.0904,0,0,nothing
-0.1224,-0.0904,0,0,nothing
-0.1269,-0.0904,0,0,nothing
-0.1314,-0.0904,0,0,nothing
-0.1359,-0.0904,0,0,nothing
-0.1405,-0.0904,0,0,nothing
-0.1450,-0.0904,0,0,nothing
-0.1495,-0.0904,0,0,nothing
-0.1540,-0.0904,0,0,nothing
-0.1586,-0.0904,0,0,nothing
-0.1631,-0.0904,0,0,nothing
-0.1676,-0.0904,0,0,nothing
-0.1721,-0.0904,0,0,nothing
-0.1766,-0.0904,0,0,nothing
-0.1812,-0.0904,0,0,nothing
-0.1857,-0.0904,0,0,nothing
-0.1902,-0.0904,0,0,nothing
-0.1947,-0.0904,0,0,nothing
-0.1992,-0.0904,0,0,nothing
-0.2038,-0.0904,0,0,nothing
-0.2083,-0.0904,0,0,nothing
-0.2128,-0.0904,0,0,nothing
-0.2173,-0.0904,0,0,nothing
-0.2219,-0.0904,0,0,nothing
-0.2264,-0.0904,0,0,nothing
-0.2309,-0.0904,0,0,nothing
-0.2354,-0.0904,0,0,nothing
-0.2399,-0.0904,0,0,nothing
-0.2445,-0.0904,0,0,nothing
-0.2490,-0.0904,0,0,nothing
-0.2535,-0.0904,0,0,nothing
-0.2580,-0.0904,0,0,nothing
-0.2625,-0.0904,0,0,nothing
-0.2671,-0.0904,0,0,nothing
-0.2716,-0.0904,0,0,nothing
-0.2761,-0.0904,0,0,nothing
-0.2806,-0.0904,0,0,nothing
-0.2852,-0.0904,0,0,nothing
-0.2897,-0.0904,0,0,nothing
-0.2942,-0.0904,0,0,nothing
-0.2987,-0.0904,0,0,nothing
-0.3032,-0.0904,0,0,nothing
-0.3078,-0.0904,0,0,nothing
-0.3123,-0.0904,0,0,nothing
-0.3168,-0.0904,0,0,nothing
-0.3213,-0.0904,0,0,nothing
-0.3258,-0.0904,0,0,nothing
-0.3304,-0.0904,0,0,nothing
-0.3349,-0.0904,0,0,nothing
-0.3394,-0.0904,0,0,nothing
-0.3439,-0.0904,0,0,nothing
-0.3484,-0.0904,0,0,nothing
-0.3530,-0.0904,0,0,nothing
-0.3575,-0.0904,0,0,nothing
-0.3620,-0.0904,0,0,nothing
-0.3665,-0.0904,0,0,nothing
-0.3711,-0.0904,0,0,nothing
-0.3756,-0.0904,0,0,nothing
-0.3801,-0.0904,0,0,nothing
-0.3846,-0.0904,0,0,nothing
-0.3891,-0.0904,0,0,nothing
-0.3937,-0.0904,0,0,nothing
-0.3982,-0.0904,0,0,nothing
-0.4027,-0.0904,0,0,nothing
-0.4072,-0.0904,0,0,nothing
-0.4117,-0.0904,0,0,nothing
-0.4163,-0.0904,0,0,nothing
-0.4208,-0.0904,0,0,nothing
-0.4253,-0.0904,0,0,nothing
-0.4298,-0.0904,0,0,nothing
-0.4343,-0.0904,0,0,nothing
-0.4389,-0.0904,0,0,nothing
-0.4434,-0.0904,0,0,nothing
-0.4479,-0.0904,0,0,nothing
-0.4524,-0.0904,0,0,nothing
-0.4570,-0.0904,0,0,nothing
-0.4615,-0.0904,0,0,nothing
-0.4660,-0.0904,0,0,nothing
-0.4705,-0.0904,0,0,nothing
-0.4750,-0.0904,0,0,nothing
-0.4796,-0.0904,0,0,nothing
-0.4841,-0.0904,0,0,nothing
-0.4886,-0.0904,0,0,nothing
-0.4931,-0.0904,0,0,nothing
-0.4976,-0.0904,0,0,nothing
-0.5022,-0.0904,0,0,nothing
-0.5067,-0.0904,0,0,nothing
-0.5112,-0.0904,0,0,nothing
-0.5157,-0.0904,0,0,nothing
-0.5202,-0.0904,0,0,nothing
-0.5248,-0.0904,0,0,nothing
-0.5293,-0.0904,0,0,nothing
-0.5338,-0.0904,0,0,nothing
-0.5383,-0.0904,0,0,nothing
-0.5429,-0.0904,0,0,nothing
-0.5474,-0.0904,0,0,nothing
-0.5519,-0.0904,0,0,nothing
-0.5564,-0.0904,0,0,nothing
-0.5609,-0.0904,0,0,nothing
-0.5655,-0.0904,0,0,nothing
-0.5700,-0.0904,0,0,nothing
-0.5745,-0.0904,0,0,nothing
-0.5790,-0.0904,0,0,nothing
-0.5835,-0.0904,0,0,nothing
-0.5881,-0.0904,0,0,nothing
-0.5926,-0.0904,0,0,nothing
-0.5971,-0.0904,0,0,nothing
-0.6016,-0.0904,0,0,nothing
-0.6061,-0.0904,0,0,nothing
-0.6107,-0.0904,0,0,nothing
-0.6152,-0.0904,0,0,nothing
-0.6197,-0.0904,0,0,nothing
-0.6242,-0.0904,0,0,nothing
-0.6287,-0.0904,0,0,nothing
-0.6333,-0.0904,0,0,nothing
-0.6378,-0.0904,0,0,nothing
-0.6423,-0.0904,0,0,nothing
-0.6468,-0.0904,0,0,nothing
-0.6513,-0.0904,0,0,nothing
-0.6559,-0.0904,0,0,nothing
-0.6604,-0.0904,0,0,nothing
-0.6649,-0.0904,0,0,nothing
-0.6694,-0.0904,0,0,nothing
-0.6740,-0.0904,0,0,nothing
-0.6785,-0.0904,0,0,nothing
-0.6830,-0.0904,0,0,nothing
-0.6875,-0.0904,0,0,nothing
-0.6920,-0.0904,0,0,nothing
-0.6966,-0.0904,0,0,nothing
-0.7011,-0.0904,0,0,nothing
-0.7056,-0.0904,0,0,nothing
-0.7101,-0.0904,0,0,nothing
-0.7146,-0.0904,0,0,nothing
-0.7192,-0.0904,0,0,nothing
-0.7237,-0.0904,0,0,nothing
-0.7282,-0.0904,0,0,nothing
-0.7327,-0.0904,0,0,nothing
-0.7372,-0.0904,0,0,nothing
-0.7418,-0.0904,0,0,nothing
-0.7463,-0.0904,0,0,nothing
-0.7508,-0.0904,0,0,nothing
-0.7553,-0.0904,0,0,nothing
-0.7598,-0.0904,0,0,nothing
-0.7644,-0.0904,0,0,nothing
-0.7689,-0.0904,0,0,nothing
-0.7734,-0.0904,0,0,nothing
-0.7779,-0.0904,0,0,nothing
-0.7824,-0.0904,0,0,nothing
-0.7870,-0.0904,0,0,nothing
-0.7915,-0.0904,0,0,nothing
-0.7960,-0.0904,0,0,nothing
-0.8005,-0.0904,0,0,nothing
-0.8050,-0.0904,0,0,nothing
-0.8096,-0.0904,0,0,nothing
-0.8141,-0.0904,0,0,nothing
-0.8186,-0.0904,0,0,nothing
-0.8231,-0.0904,0,0,nothing
-0.8277,-0.0904,0,0,nothing
-0.8322,-0.0904,0,0,nothing
-0.8367,-0.0904,0,0,nothing
-0.8412,-0.0904,0,0,nothing
-0.8457,-0.0904,0,0,nothing
-0.8503,-0.0904,0,0,nothing
-0.8548,-0.0904,0,0,nothing
-0.8593,-0.0904,0,0,nothing
-0.8638,-0.0904,0,0,nothing
-0.8683,-0.0904,0,0,nothing
-0.8729,-0.0904,0,0,nothing
-0.8774,-0.0904,0,0,nothing
-0.8819,-0.0904,0,0,nothing
-0.8864,-0.0904,0,0,nothing
-0.8909,-0.0904,0,0,nothing
-0.8955,-0.0904,0,0,nothing
-0.9000,-0.0904,0,0,nothing
-0.9045,-0.0904,0,0,nothing
-0.9090,-0.0904,0,0,nothing
-0.9135,-0.0904,0,0,nothing
-0.9181,-0.0904,0,0,nothing
-0.9226,-0.0904,0,0,nothing
-0.9271,-0.0904,0,0,nothing
-0.9316,-0.0904,0,0,nothing
-0.9361,-0.0904,0,0,nothing
-0.9407,-0.0904,0,0,nothing
-0.9452,-0.0904,0,0,nothing
-0.9497,-0.0904,0,0,nothing
-0.9542,-0.0904,0,0,nothing
-0.9587,-0.0904,0,0,nothing
-0.9633,-0.0904,0,0,nothing
-0.9678,-0.0904,0,0,nothing
-0.9723,-0.0904,0,0,nothing
-0.9768,-0.0904,0,0,nothing
-0.9813,-0.0904,0,0,nothing
-0.9859,-0.0904,0,0,nothing
-0.9904,-0.0904,0,0,nothing
-0.9949,-0.0904,0,0,nothing
-0.9994,-0.0904,0,0,nothing
-1.0039,-0.0904,0,0,nothing
-1.0085,-0.0904,0,0,nothing
-1.0130,-0.0904,0,0,nothing
-1.0175,-0.0904,0,0,nothing
-1.0220,-0.0904,0,0,nothing
-1.0265,-0.0904,0,0,nothing
-1.0311,-0.0904,0,0,nothing
-1.0356,-0.0904,0,0,nothing
-1.0401,-0.0904,0,0,nothing
-1.0446,-0.0904,0,0,nothing
-1.0491,-0.0904,0,0,nothing
-1.0537,-0.0904,0,0,nothing
-1.0582,-0.0904,0,0,nothing
-1.0627,-0.0904,0,0,nothing
-1.0672,-0.0904,0,0,nothing
-1.0717,-0.0904,0,0,nothing
-1.0763,-0.0904,0,0,nothing
-1.0808,-0.0904,0,0,nothing
-1.0853,-0.0904,0,0,nothing
-1.0898,-0.0904,0,0,nothing
-1.0943,-0.0904,0,0,nothing
-1.0989,-0.0904,0,0,nothing
-1.1034,-0.0904,0,0,nothing
-1.1079,-0.0904,0,0,nothing
-1.1124,-0.0904,0,0,nothing
-1.1169,-0.0904,0,0,nothing
-1.1215,-0.0904,0,0,nothing
-1.1260,-0.0904,0,0,nothing
-1.1305,-0.0904,0,0,nothing
0.0000,0.0001,0,0,nothing
0.0000,0.0001,0,0,nothing
0.0000,0.0001,0,0,nothing
0.0000,0.0001,0,0,nothing
0.0000,0.0001,0,0,nothing
0.0000,0.0001,0,0,nothing
0.0000,0.0001,0,0,nothing
0.0000,0.0001,0,0,nothing
0.0000,0.0001,0,0,nothing
0.0000,0.0001,0,0,nothing
0.0000,0.0001,0,0,nothing
0.0000,0.0001,0,0,nothing
0.0000,0.0001,0,0,nothing
0.0000,0.0001,0,0,nothing
0.0000,0.0001,0,0,nothing
0.0001,0.0001,0,0,nothing
0.0001,0.0001,0,0,nothing
0.0001,0.0001,0,0,nothing
0.0001,0.0001,0,0,nothing
0.0001,0.0001,0,0,nothing
0.0001,0.0001,0,0,nothing
0.0001,0.0001,0,0,nothing
0.0001,0.0001,0,0,nothing
0.0001,0.0001,0,0,nothing
0.0001,0.0001,0,0,nothing
0.0001,0.0001,0,0,nothing
0.0001,0.0001,0,0,nothing
0.0001,0.0001,0,0,nothing
0.0001,0.0001,0,0,nothing
0.0001,0.0001,0,0,nothing
0.0001,0.0001,0,0,nothing
0.0001,0.0001,0,0,nothing
0.0001,0.0001,0,0,nothing
0.0001,0.0001,0,0,nothing
0.0001,0.0001,0,0,nothing
0.0001,0.0001,0,0,nothing
0.0001,0.0001,0,0,nothing
0.0001,0.0001,0,0,nothing
0.0001,0.0001,0,0,nothing
0.0001,0.0001,0,0,nothing
0.0001,0.0001,0,0,nothing
0.0001,0.0001,0,0,nothing
0.0001,0.0001,0,0,nothing
0.0001,0.0001,0,0,nothing
0.0001,0.0001,0,0,nothing
0.0001,0.0001,0,0,nothing
0.0001,0.0001,0,0,nothing
0.0001,0.0001,0,0,nothing
0.0001,0.0001,0,0,nothing
0.0001,0.0001,0,0,nothing
0.0001,0.0001,0,0,nothing
0.0001,0.0001,0,0,nothing
0.0001,0.0001,0,0,nothing
0.0001,0.0001,0,0,nothing
0.0001,0.0001,0,0,nothing
0.0002,0.0001,0,0,nothing
0.0002,0.0001,0,0,nothing
0.0002,0.0001,0,0,nothing
0.0002,0.0001,0,0,nothing
0.0002,0.0001,0,0,nothing
0.0002,0.0001,0,0,nothing
0.0002,0.0001,0,0,nothing
0.0002,0.0001,0,0,nothing
0.0002,0.0001,0,0,nothing
0.0002,0.0001,0,0,nothing
0.0002,0.0001,0,0,nothing
0.0002,0.0001,0,0,nothing
0.0002,0.0001,0,0,nothing
0.0002,0.0001,0,0,nothing
0.0002,0.0001,0,0,nothing
0.0002,0.0001,0,0,nothing
0.0002,0.0001,0,0,nothing
0.0002,0.0001,0,0,nothing
0.0002,0.0001,0,0,nothing
0.0002,0.0001,0,0,nothing
0.0002,0.0001,0,0,nothing
0.0002,0.0001,0,0,nothing
0.0002,0.0001,0,0,nothing
0.0002,0.0001,0,0,nothing
0.0002,0.0001,0,0,nothing
0.0002,0.0001,0,0,nothing
0.0002,0.0001,0,0,nothing
0.0002,0.0001,0,0,nothing
0.0002,0.0001,0,0,nothing
0.0002,0.0001,0,0,nothing
0.0002,0.0001,0,0,nothing
0.0002,0.0001,0,0,nothing
0.0002,0.0001,0,0,nothing
0.0002,0.0001,0,0,nothing
0.0002,0.0001,0,0,nothing
0.0002,0.0001,0,0,nothing
0.0002,0.0001,0,0,nothing
0.0002,0.0001,0,0,nothing
0.0002,0.0001,0,0,nothing
0.0003,0.0001,0,0,nothing
0.0003,0.0001,0,0,nothing
0.0003,0.0001,0,0,nothing
0.0003,0.0001,0,0,nothing
0.0003,0.0001,0,0,nothing
0.0003,0.0001,0,0,nothing
0.0003,0.0001,0,0,nothing
0.0003,0.0001,0,0,nothing
0.0003,0.0001,0,0,nothing
0.0004,0.0035,0,0,main_engine
0.0009,0.0090,0,0,main_engine
0.0022,0.0256,0,0,main_engine
0.0034,0.0240,0,0,main_engine
0.0049,0.0310,0,0,main_engine
0.0067,0.0354,0,0,main_engine
0.0085,0.0364,0,0,main_engine
0.0110,0.0503,0,0,main_engine
0.0135,0.0503,0,0,nothing
0.0161,0.0503,0,0,nothing
0.0186,0.0503,0,0,nothing
0.0211,0.0503,0,0,nothing
0.0236,0.0503,0,0,nothing
0.0261,0.0503,0,0,nothing
0.0286,0.0503,0,0,nothing
0.0311,0.0503,0,0,nothing
0.0336,0.0503,0,0,nothing
0.0362,0.0503,0,0,nothing
0.0387,0.0503,0,0,nothing
0.0412,0.0503,0,0,nothing
0.0437,0.0503,0,0,nothing
0.0462,0.0503,0,0,nothing
0.0487,0.0503,0,0,nothing
0.0512,0.0503,0,0,nothing
0.0538,0.0503,0,0,nothing
0.0563,0.0503,0,0,nothing
0.0588,0.0503,0,0,nothing
0.0613,0.0503,0,0,nothing
0.0638,0.0503,0,0,nothing
0.0663,0.0503,0,0,nothing
0.0688,0.0503,0,0,nothing
0.0713,0.0503,0,0,nothing
0.0739,0.0503,0,0,nothing
0.0764,0.0503,0,0,nothing
0.0789,0.0503,0,0,nothing
0.0814,0.0503,0,0,nothing
0.0839,0.0503,0,0,nothing
0.0864,0.0503,0,0,nothing
0.0889,0.0503,0,0,nothing
0.0915,0.0503,0,0,nothing
0.0940,0.0503,0,0,nothing
0.0965,0.0503,0,0,nothing
0.0990,0.0503,0,0,nothing
0.1015,0.0503,0,0,nothing
0.1040,0.0503,0,0,nothing
0.1065,0.0503,0,0,nothing
0.1090,0.0503,0,0,nothing
0.1116,0.0503,0,0,nothing
0.1141,0.0503,0,0,nothing
0.1166,0.0503,0,0,nothing
0.1191,0.0503,0,0,nothing
0.1216,0.0503,0,0,nothing
0.1241,0.0503,0,0,nothing
0.1266,0.0503,0,0,nothing
0.1292,0.0503,0,0,nothing
0.1317,0.0503,0,0,nothing
0.1345,0.0575,0,0,main_engine
0.1373,0.0543,0,0,main_engine
0.1400,0.0551,0,0,main_engine
0.1424,0.0479,0,0,main_engine
0.1447,0.0452,0,0,main_engine
0.1462,0.0302,0,0,main_engine
0.1472,0.0196,0,0,main_engine
0.1477,0.0109,0,0,main_engine
0.1489,0.0243,0,0,main_engine
0.1501,0.0243,0,0,nothing
0.1513,0.0243,0,0,nothing
0.1526,0.0243,0,0,nothing
0.1538,0.0243,0,0,nothing
0.1550,0.0243,0,0,nothing
0.1562,0.0243,0,0,nothing
0.1574,0.0243,0,0,nothing
0.1586,0.0243,0,0,nothing
0.1599,0.0243,0,0,nothing
0.1611,0.0243,0,0,nothing
0.1623,0.0243,0,0,nothing
0.1635,0.0243,0,0,nothing
0.1647,0.0243,0,0,nothing
0.1659,0.0243,0,0,nothing
0.1672,0.0243,0,0,nothing
0.1684,0.0243,0,0,nothing
0.1696,0.0243,0,0,nothing
0.1708,0.0243,0,0,nothing
0.1720,0.0243,0,0,nothing
0.1732,0.0243,0,0,nothing
0.1745,0.0243,0,0,nothing
0.1757,0.0243,0,0,nothing
0.1769,0.0243,0,0,nothing
0.1781,0.0243,0,0,nothing
0.1793,0.0243,0,0,nothing
0.1805,0.0243,0,0,nothing
0.1818,0.0243,0,0,nothing
0.1830,0.0243,0,0,nothing
0.1842,0.0243,0,0,nothing
0.1854,0.0243,0,0,nothing
0.1866,0.0243,0,0,nothing
0.1878,0.0243,0,0,nothing
0.1891,0.0243,0,0,nothing
0.1903,0.0243,0,0,nothing
0.1915,0.0243,0,0,nothing
0.1927,0.0243,0,0,nothing
0.1939,0.0243,0,0,nothing
0.1951,0.0243,0,0,nothing
0.1964,0.0243,0,0,nothing
0.1976,0.0243,0,0,nothing
0.1988,0.0243,0,0,nothing
0.2000,0.0243,0,0,nothing
0.2012,0.0243,0,0,nothing
0.2024,0.0243,0,0,nothing
0.2037,0.0243,0,0,nothing
0.2040,0.0075,0,0,main_engine
0.2047,0.0131,0,0,main_engine
0.2047,0.0011,0,0,main_engine
0.2048,0.0011,0,0,nothing
0.2049,0.0011,0,0,nothing
0.2049,0.0011,0,0,nothing
0.2050,0.0011,0,0,nothing
0.2050,0.0011,0,0,nothing
0.2051,0.0011,0,0,nothing
0.2051,0.0011,0,0,nothing
0.2052,0.0011,0,0,nothing
0.2052,0.0011,0,0,nothing
0.2053,0.0011,0,0,nothing
0.2054,0.0011,0,0,nothing
0.2054,0.0011,0,0,nothing
0.2055,0.0011,0,0,nothing
0.2055,0.0011,0,0,nothing
0.2056,0.0011,0,0,nothing
0.2056,0.0011,0,0,nothing
0.2057,0.0011,0,0,nothing
0.2058,0.0011,0,0,nothing
0.2058,0.0011,0,0,nothing
0.2059,0.0011,0,0,nothing
0.2059,0.0011,0,0,nothing
0.2066,0.0137,0,0,main_engine
0.2073,0.0137,0,0,nothing
0.2080,0.0137,0,0,nothing
0.2087,0.0137,0,0,nothing
0.2094,0.0137,0,0,nothing
0.2101,0.0137,0,0,nothing
0.2107,0.0137,0,0,nothing
0.2114,0.0137,0,0,nothing
0.2121,0.0137,0,0,nothing
0.2128,0.0137,0,0,nothing
0.2135,0.0137,0,0,nothing
0.2142,0.0137,0,0,nothing
0.2149,0.0137,0,0,nothing
0.2156,0.0137,0,0,nothing
0.2162,0.0137,0,0,nothing
0.2193,0.0610,0,0,left_engine
0.2248,0.1099,0,0,left_engine
0.2321,0.1455,0,0,left_engine
0.2393,0.1455,0,0,nothing
0.2466,0.1455,0,0,nothing
0.2539,0.1455,0,0,nothing
0.2612,0.1455,0,0,nothing
0.2684,0.1455,0,0,nothing
0.2781,0.1941,0,0,left_engine
0.2897,0.2307,0,0,left_engine
0.3030,0.2663,0,0,left_engine
0.3163,0.2663,0,0,nothing
0.3296,0.2663,0,0,nothing
0.3429,0.2663,0,0,nothing
0.3562,0.2663,0,0,nothing
0.3526,-0.0726,0,1,nothing
0.3313,-0.4262,0,1,nothing
0.2940,-0.7459,0,1,nothing
0.2471,-0.9383,0,1,nothing
0.1984,-0.9734,0,1,nothing
0.1516,-0.9369,0,0,nothing
0.1047,-0.9368,0,0,nothing
0.0579,-0.9367,0,0,nothing
0.0087,-0.9846,0,0,right_engine
-0.0424,-1.0208,0,0,right_engine
-0.0951,-1.0556,0,0,right_engine
-0.1307,-0.7106,1,0,right_engine
-0.1471,-0.3276,1,0,nothing
-0.1444,0.0545,1,0,nothing
-0.1255,0.3780,1,0,nothing
-0.0995,0.5195,1,0,right_engine
-0.0737,0.5168,1,0,right_engine
-0.0505,0.4638,1,0,right_engine
-0.0296,0.4183,0,0,right_engine
-0.0284,0.0232,0,1,right_engine
-0.0313,-0.0575,0,1,right_engine
-0.0325,-0.0243,1,1,right_engine
-0.0315,0.0190,1,1,nothing
-0.0283,0.0657,1,1,nothing
-0.0233,0.0992,1,1,nothing
-0.0176,0.1147,1,1,nothing
-0.0141,0.0682,1,1,right_engine
-0.0129,0.0252,0,1,right_engine
-0.0134,-0.0098,0,1,right_engine
-0.0162,-0.0575,0,0,right_engine
-0.0191,-0.0575,0,0,nothing
-0.0220,-0.0575,0,0,nothing
-0.0219,0.0026,1,0,nothing
-0.0212,0.0145,1,0,nothing
-0.0198,0.0263,1,0,nothing
-0.0179,0.0382,1,0,nothing
-0.0158,0.0424,1,0,right_engine
-0.0136,0.0440,1,0,right_engine
-0.0111,0.0491,1,0,right_engine
-0.0086,0.0510,1,0,right_engine
-0.0055,0.0628,1,0,nothing
-0.0017,0.0744,1,0,nothing
-0.0017,-0.0000,1,1,nothing
-0.0017,0.0000,1,0,nothing
-0.0017,0.0000,1,0,nothing
-0.0017,-0.0000,1,0,nothing
-0.0017,-0.0000,1,0,nothing
-0.0017,-0.0000,1,0,nothing
-0.0017,-0.0000,1,0,nothing
-0.0017,-0.0000,1,0,nothing
-0.0017,0.0000,1,0,nothing
-0.0017,0.0000,1,0,nothing
-0.0017,-0.0000,1,0,nothing
-0.0017,-0.0000,1,0,nothing
-0.0017,0.0000,1,0,nothing
-0.0017,0.0000,1,0,nothing
-0.0017,-0.0000,1,0,nothing
-0.0017,-0.0000,1,0,nothing
-0.0017,-0.0000,1,0,nothing
-0.0017,-0.0000,1,0,nothing
-0.0017,-0.0000,1,0,nothing
-0.0017,0.0000,1,0,nothing
-0.0017,0.0000,1,0,nothing
-0.0017,0.0000,1,0,nothing
-0.0017,-0.0000,1,0,nothing
-0.0017,0.0000,1,0,nothing
-0.0017,-0.0000,1,0,nothing
-0.0017,-0.0000,1,0,nothing
-0.0017,-0.0000,1,0,nothing
-0.0017,-0.0000,1,0,nothing
-0.0017,0.0000,1,0,nothing
-0.0017,0.0000,1,0,nothing
-0.0017,0.0000,1,0,nothing
-0.0017,0.0000,1,0,nothing
-0.0017,0.0000,1,0,nothing
-0.0017,0.0000,1,0,nothing
-0.0017,0.0000,1,0,nothing
-0.0017,-0.0000,1,0,nothing
-0.0017,-0.0000,1,0,nothing
-0.0017,0.0000,1,0,nothing
-0.0017,-0.0000,1,0,nothing
-0.0017,-0.0000,1,0,nothing
-0.0017,0.0000,1,0,nothing
-0.0017,0.0000,1,0,nothing
-0.0017,0.0000,1,0,nothing
-0.0017,-0.0000,1,0,nothing
-0.0017,-0.0000,1,0,nothing
-0.0017,-0.0000,1,0,nothing
-0.0017,-0.0000,1,0,nothing
-0.0017,-0.0000,1,0,nothing
-0.0017,-0.0000,1,0,nothing
-0.0017,-0.0000,1,0,nothing
-0.0017,-0.0000,1,0,nothing
-0.0017,0.0000,1,0,nothing
-0.0017,0.0000,1,0,nothing
-0.0017,0.0000,1,0,nothing
-0.0017,-0.0000,1,0,nothing
-0.0017,-0.0000,1,0,nothing
-0.0017,-0.0000,1,0,nothing
-0.0017,0.0000,1,0,nothing
-0.0017,0.0000,1,0,nothing
-0.0017,0.0000,1,0,nothing
-0.0017,-0.0000,1,0,nothing
-0.0017,-0.0000,1,0,nothing
-0.0017,0.0000,1,0,nothing
-0.0017,0.0000,1,0,nothing
-0.0017,0.0000,1,0,nothing
-0.0017,0.0000,1,0,nothing
-0.0017,0.0000,1,0,nothing
-0.0017,-0.0000,1,0,nothing
-0.0017,-0.0000,1,0,nothing
-0.0017,-0.0000,1,0,nothing
-0.0017,0.0000,1,0,nothing
-0.0017,0.0000,1,0,nothing
-0.0017,-0.0000,1,0,nothing
-0.0017,0.0000,1,0,nothing
-0.0017,-0.0000,1,0,nothing
-0.0017,-0.0000,1,0,nothing
-0.0017,0.0000,1,0,nothing
-0.0017,0.0001,1,0,nothing
-0.0017,0.0000,1,0,nothing
-0.0017,-0.0000,1,0,nothing
-0.0017,-0.0000,1,0,nothing
-0.0017,-0.0000,1,0,nothing
-0.0017,-0.0000,1,0,nothing
-0.0017,0.0000,1,0,nothing
-0.0017,0.0000,1,0,nothing
-0.0017,0.0000,1,0,nothing
-0.0017,-0.0000,1,0,nothing
-0.0017,-0.0000,1,0,nothing
-0.0017,-0.0000,1,0,nothing
-0.0017,0.0000,1,0,nothing
-0.0017,0.0000,1,0,nothing
-0.0017,0.0000,1,0,nothing
-0.0017,-0.0000,1,0,nothing
-0.0017,-0.0000,1,0,nothing
-0.0017,-0.0000,1,0,nothing
-0.0017,-0.0000,1,0,nothing
-0.0017,-0.0000,1,0,nothing
-0.0017,0.0000,1,0,nothing
-0.0017,0.0000,1,0,nothing
-0.0007,-0.0068,0,0,nothing
-0.0010,-0.0068,0,0,nothing
-0.0014,-0.0068,0,0,nothing
-0.0017,-0.0068,0,0,nothing
-0.0020,-0.0068,0,0,nothing
-0.0024,-0.0068,0,0,nothing
-0.0027,-0.0068,0,0,nothing
-0.0031,-0.0068,0,0,nothing
-0.0034,-0.0068,0,0,nothing
-0.0037,-0.0068,0,0,nothing
-0.0041,-0.0068,0,0,nothing
-0.0044,-0.0068,0,0,nothing
-0.0047,-0.0068,0,0,nothing
-0.0051,-0.0068,0,0,nothing
-0.0054,-0.0068,0,0,nothing
-0.0058,-0.0068,0,0,nothing
-0.0061,-0.0068,0,0,nothing
-0.0064,-0.0068,0,0,nothing
-0.0068,-0.0068,0,0,nothing
-0.0071,-0.0068,0,0,nothing
-0.0074,-0.0068,0,0,nothing
-0.0078,-0.0068,0,0,nothing
-0.0081,-0.0068,0,0,nothing
-0.0085,-0.0068,0,0,nothing
-0.0088,-0.0068,0,0,nothing
-0.0091,-0.0068,0,0,nothing
-0.0095,-0.0068,0,0,nothing
-0.0098,-0.0068,0,0,nothing
-0.0101,-0.0068,0,0,nothing
-0.0105,-0.0068,0,0,nothing
-0.0108,-0.0068,0,0,nothing
-0.0112,-0.0068,0,0,nothing
-0.0115,-0.0068,0,0,nothing
-0.0118,-0.0068,0,0,nothing
-0.0122,-0.0068,0,0,nothing
-0.0125,-0.0068,0,0,nothing
-0.0129,-0.0068,0,0,nothing
-0.0132,-0.0068,0,0,nothing
-0.0135,-0.0068,0,0,nothing
-0.0139,-0.0068,0,0,nothing
-0.0142,-0.0068,0,0,nothing
-0.0145,-0.0068,0,0,nothing
-0.0149,-0.0068,0,0,nothing
-0.0152,-0.0068,0,0,nothing
-0.0156,-0.0068,0,0,nothing
-0.0159,-0.0068,0,0,nothing
-0.0162,-0.0068,0,0,nothing
-0.0166,-0.0068,0,0,nothing
-0.0169,-0.0068,0,0,nothing
-0.0172,-0.0068,0,0,nothing
-0.0176,-0.0068,0,0,nothing
-0.0179,-0.0068,0,0,nothing
-0.0183,-0.0068,0,0,nothing
-0.0186,-0.0068,0,0,nothing
-0.0189,-0.0068,0,0,nothing
-0.0193,-0.0068,0,0,nothing
-0.0196,-0.0068,0,0,nothing
-0.0199,-0.0068,0,0,nothing
-0.0203,-0.0068,0,0,nothing
-0.0206,-0.0068,0,0,nothing
-0.0210,-0.0068,0,0,nothing
-0.0213,-0.0068,0,0,nothing
-0.0216,-0.0068,0,0,nothing
-0.0220,-0.0068,0,0,nothing
-0.0223,-0.0068,0,0,nothing
-0.0226,-0.0068,0,0,nothing
-0.0230,-0.0068,0,0,nothing
-0.0233,-0.0068,0,0,nothing
-0.0237,-0.0068,0,0,nothing
-0.0240,-0.0068,0,0,nothing
-0.0243,-0.0068,0,0,nothing
-0.0247,-0.0068,0,0,nothing
-0.0250,-0.0068,0,0,nothing
-0.0253,-0.0068,0,0,nothing
-0.0257,-0.0068,0,0,nothing
-0.0260,-0.0068,0,0,nothing
-0.0264,-0.0068,0,0,nothing
-0.0267,-0.0068,0,0,nothing
-0.0270,-0.0068,0,0,nothing
-0.0274,-0.0068,0,0,nothing
-0.0277,-0.0068,0,0,nothing
-0.0281,-0.0068,0,0,nothing
-0.0284,-0.0068,0,0,nothing
-0.0287,-0.0068,0,0,nothing
-0.0291,-0.0068,0,0,nothing
-0.0294,-0.0068,0,0,nothing
-0.0297,-0.0068,0,0,nothing
-0.0301,-0.0068,0,0,nothing
-0.0304,-0.0068,0,0,nothing
-0.0308,-0.0068,0,0,nothing
-0.0311,-0.0068,0,0,nothing
-0.0314,-0.0068,0,0,nothing
-0.0318,-0.0068,0,0,nothing
-0.0321,-0.0068,0,0,nothing
-0.0324,-0.0068,0,0,nothing
-0.0328,-0.0068,0,0,nothing
-0.0331,-0.0068,0,0,nothing
-0.0335,-0.0068,0,0,nothing
-0.0338,-0.0068,0,0,nothing
-0.0341,-0.0068,0,0,nothing
-0.0345,-0.0068,0,0,nothing
-0.0348,-0.0068,0,0,nothing
-0.0351,-0.0068,0,0,nothing
-0.0355,-0.0068,0,0,nothing
-0.0358,-0.0068,0,0,nothing
-0.0362,-0.0068,0,0,nothing
-0.0365,-0.0068,0,0,nothing
-0.0373,-0.0167,0,0,main_engine
-0.0386,-0.0255,0,0,main_engine
-0.0392,-0.0110,0,0,main_engine
-0.0392,-0.0008,0,0,main_engine
-0.0386,0.0126,0,0,main_engine
-0.0384,0.0038,0,0,main_engine
-0.0382,0.0038,0,0,nothing
-0.0380,0.0038,0,0,nothing
-0.0378,0.0038,0,0,nothing
-0.0376,0.0038,0,0,nothing
-0.0374,0.0038,0,0,nothing
-0.0372,0.0038,0,0,nothing
-0.0370,0.0038,0,0,nothing
-0.0368,0.0038,0,0,nothing
-0.0367,0.0038,0,0,nothing
-0.0365,0.0038,0,0,nothing
-0.0363,0.0038,0,0,nothing
-0.0361,0.0038,0,0,nothing
-0.0359,0.0038,0,0,nothing
-0.0357,0.0038,0,0,nothing
-0.0355,0.0038,0,0,nothing
-0.0353,0.0038,0,0,nothing
-0.0351,0.0038,0,0,nothing
-0.0346,0.0116,0,0,main_engine
-0.0336,0.0195,0,0,main_engine
-0.0329,0.0137,0,0,main_engine
-0.0324,0.0100,0,0,main_engine
-0.0319,0.0100,0,0,nothing
-0.0314,0.0100,0,0,nothing
-0.0309,0.0100,0,0,nothing
-0.0304,0.0100,0,0,nothing
-0.0299,0.0100,0,0,nothing
-0.0294,0.0100,0,0,nothing
-0.0289,0.0100,0,0,nothing
-0.0284,0.0100,0,0,nothing
-0.0279,0.0100,0,0,nothing
-0.0274,0.0096,0,0,main_engine
-0.0270,0.0096,0,0,nothing
-0.0265,0.0096,0,0,nothing
-0.0260,0.0096,0,0,nothing
-0.0255,0.0096,0,0,nothing
-0.0250,0.0096,0,0,nothing
-0.0246,0.0096,0,0,nothing
-0.0241,0.0096,0,0,nothing
-0.0236,0.0096,0,0,nothing
-0.0231,0.0096,0,0,nothing
-0.0226,0.0096,0,0,nothing
-0.0222,0.0096,0,0,nothing
-0.0217,0.0096,0,0,nothing
-0.0209,0.0157,0,0,main_engine
-0.0197,0.0244,0,0,main_engine
-0.0192,0.0094,0,0,main_engine
-0.0187,0.0094,0,0,nothing
-0.0183,0.0094,0,0,nothing
-0.0178,0.0094,0,0,nothing
-0.0173,0.0094,0,0,nothing
-0.0169,0.0094,0,0,nothing
-0.0164,0.0094,0,0,nothing
-0.0159,0.0094,0,0,nothing
-0.0154,0.0094,0,0,nothing
-0.0150,0.0094,0,0,nothing
-0.0145,0.0094,0,0,nothing
-0.0140,0.0094,0,0,nothing
-0.0136,0.0094,0,0,nothing
-0.0131,0.0094,0,0,nothing
-0.0126,0.0094,0,0,nothing
-0.0121,0.0094,0,0,nothing
-0.0117,0.0094,0,0,nothing
-0.0112,0.0094,0,0,nothing
-0.0107,0.0094,0,0,nothing
-0.0103,0.0094,0,0,nothing
-0.0098,0.0094,0,0,nothing
-0.0093,0.0094,0,0,nothing
-0.0089,0.0094,0,0,nothing
-0.0084,0.0094,0,0,nothing
-0.0079,0.0094,0,0,nothing
-0.0074,0.0094,0,0,nothing
-0.0070,0.0094,0,0,nothing
-0.0065,0.0094,0,0,nothing
-0.0060,0.0094,0,0,nothing
-0.0056,0.0094,0,0,nothing
-0.0051,0.0094,0,0,nothing
-0.0046,0.0094,0,0,nothing
-0.0042,0.0094,0,0,nothing
-0.0037,0.0094,0,0,nothing
-0.0032,0.0094,0,0,nothing
-0.0027,0.0094,0,0,nothing
-0.0023,0.0094,0,0,nothing
-0.0018,0.0094,0,0,nothing
-0.0020,-0.0040,0,0,main_engine
-0.0016,0.0076,0,0,main_engine
-0.0007,0.0191,0,0,main_engine
0.0003,0.0191,0,0,nothing
0.0012,0.0191,0,0,nothing
0.0022,0.0191,0,0,nothing
0.0032,0.0191,0,0,nothing
0.0041,0.0191,0,0,nothing
0.0051,0.0191,0,0,nothing
0.0060,0.0191,0,0,nothing
0.0070,0.0191,0,0,nothing
0.0079,0.0191,0,0,nothing
0.0089,0.0191,0,0,nothing
0.0101,0.0246,0,0,main_engine
0.0113,0.0242,0,0,main_engine
0.0124,0.0215,0,0,main_engine
0.0135,0.0215,0,0,nothing
0.0145,0.0215,0,0,nothing
0.0156,0.0215,0,0,nothing
0.0167,0.0215,0,0,nothing
0.0178,0.0215,0,0,nothing
0.0188,0.0215,0,0,nothing
0.0199,0.0215,0,0,nothing
0.0210,0.0215,0,0,nothing
0.0243,0.0664,0,0,left_engine
0.0291,0.0965,0,0,left_engine
0.0364,0.1451,0,0,left_engine
0.0453,0.1772,0,0,left_engine
0.0541,0.1772,0,0,nothing
0.0630,0.1772,0,0,nothing
0.0718,0.1772,0,0,nothing
0.0807,0.1772,0,0,nothing
0.0896,0.1772,0,0,nothing
0.0984,0.1772,0,0,nothing
0.1073,0.1772,0,0,nothing
0.1162,0.1772,0,0,nothing
0.1250,0.1772,0,0,nothing
0.1355,0.2105,0,0,left_engine
0.1485,0.2594,0,0,left_engine
0.1615,0.2594,0,0,nothing
0.1744,0.2594,0,0,nothing
0.1874,0.2594,0,0,nothing
0.2004,0.2594,0,0,nothing
0.2134,0.2594,0,0,nothing
0.2263,0.2594,0,0,nothing
0.2393,0.2594,0,0,nothing
0.2523,0.2594,0,0,nothing
0.2652,0.2594,0,0,nothing
0.2782,0.2594,0,0,nothing
0.2912,0.2594,0,0,nothing
0.3041,0.2594,0,0,nothing
0.3171,0.2594,0,0,nothing
0.3301,0.2594,0,0,nothing
0.3430,0.2594,0,0,nothing
0.3560,0.2593,0,0,nothing
0.3690,0.2593,0,0,nothing
0.3819,0.2593,0,1,nothing
0.3799,-0.0441,0,1,nothing
0.3601,-0.3947,0,1,nothing
0.3241,-0.7213,0,1,nothing
0.2778,-0.9252,0,1,nothing
0.2293,-0.9709,0,1,nothing
0.1843,-0.9003,0,1,left_engine
0.1408,-0.8688,0,0,left_engine
0.0991,-0.8341,0,0,left_engine
0.0602,-0.7793,0,0,left_engine
0.0212,-0.7793,0,0,nothing
-0.0178,-0.7792,0,0,nothing
-0.0567,-0.7791,0,0,nothing
-0.0936,-0.7380,1,0,left_engine
-0.1108,-0.3414,1,0,left_engine
-0.1070,0.0767,1,0,left_engine
-0.0868,0.4037,1,0,nothing
-0.0575,0.5855,1,0,nothing
-0.0270,0.6104,1,0,nothing
0.0024,0.5879,1,1,nothing
0.0188,0.3268,0,1,nothing
0.0187,-0.0025,0,1,nothing
0.0069,-0.2353,0,1,left_engine
-0.0030,-0.1992,1,1,left_engine
-0.0071,-0.0824,1,1,left_engine
-0.0061,0.0213,1,1,left_engine
-0.0092,-0.0631,1,1,nothing
-0.0116,-0.0471,1,1,nothing
-0.0140,-0.0471,0,0,nothing
-0.0163,-0.0471,0,0,nothing
-0.0187,-0.0471,0,0,nothing
-0.0187,-0.0003,0,0,left_engine
-0.0163,0.0469,0,0,left_engine
-0.0118,0.0901,0,0,left_engine
-0.0051,0.1338,0,0,left_engine
0.0038,0.1792,0,0,left_engine
0.0143,0.2105,0,0,left_engine
0.0266,0.2449,0,0,left_engine
0.0408,0.2837,0,0,left_engine
0.0438,0.0609,0,1,left_engine
0.0467,0.0576,0,1,left_engine
0.0490,0.0457,0,1,nothing
0.0507,0.0337,0,1,nothing
0.0518,0.0217,0,1,nothing
0.0522,0.0097,0,1,nothing
0.0521,-0.0023,0,1,nothing
0.0514,-0.0143,0,1,nothing
0.0501,-0.0263,0,1,nothing
0.0482,-0.0383,0,1,nothing
0.0457,-0.0503,0,1,nothing
0.0426,-0.0622,0,1,nothing
0.0389,-0.0740,0,1,nothing
0.0346,-0.0858,0,1,nothing
0.0297,-0.0975,0,1,nothing
0.0243,-0.1090,0,1,nothing
0.0182,-0.1205,0,1,nothing
0.0116,-0.1319,0,1,nothing
0.0045,-0.1432,0,1,nothing
-0.0032,-0.1543,0,1,nothing
-0.0042,-0.0182,1,1,nothing
0.0008,0.0998,1,1,nothing
0.0051,0.0850,1,1,nothing
0.0088,0.0735,1,1,nothing
0.0119,0.0618,0,1,nothing
0.0144,0.0501,0,1,nothing
0.0163,0.0384,0,1,nothing
0.0176,0.0266,0,1,nothing
0.0183,0.0147,0,1,nothing
0.0185,0.0029,0,1,nothing
0.0180,-0.0090,0,1,nothing
0.0170,-0.0208,0,1,nothing
0.0154,-0.0327,0,1,nothing
0.0131,-0.0445,0,1,nothing
0.0103,-0.0562,0,1,nothing
0.0069,-0.0680,0,1,nothing
0.0029,-0.0796,0,1,nothing
0.0029,0.0001,1,1,nothing
0.0029,-0.0001,1,1,nothing
0.0029,-0.0000,1,1,nothing
0.0029,0.0000,1,1,nothing
0.0029,0.0000,1,1,nothing
0.0029,-0.0000,1,1,nothing
0.0029,0.0000,1,1,nothing
0.0012,-0.0349,1,1,nothing
0.0001,-0.0223,1,1,nothing
-0.0004,-0.0099,1,0,nothing
-0.0003,0.0025,1,0,nothing
0.0005,0.0148,1,0,nothing
0.0005,0.0000,1,1,nothing
0.0005,-0.0000,1,1,nothing
0.0005,0.0000,1,1,right_engine
0.0005,0.0000,1,1,right_engine
0.0005,0.0000,1,1,right_engine
0.0005,-0.0000,1,1,nothing
0.0005,-0.0000,1,1,nothing
0.0005,0.0000,1,1,nothing
0.0005,0.0000,1,1,nothing
0.0005,0.0000,1,1,nothing
0.0005,0.0000,1,1,nothing
0.0005,-0.0000,1,1,nothing
0.0005,0.0000,1,1,nothing
0.0005,-0.0000,1,1,nothing
0.0005,0.0000,1,1,nothing
0.0005,0.0000,1,1,nothing
0.0005,0.0000,1,1,nothing
0.0005,0.0000,1,1,nothing
0.0005,0.0000,1,1,nothing
0.0005,0.0000,1,1,nothing
0.0005,0.0000,1,1,nothing
0.0005,-0.0000,1,1,nothing
0.0005,-0.0000,1,1,nothing
0.0005,0.0000,1,1,nothing
0.0005,0.0000,1,1,nothing
0.0005,0.0000,1,1,nothing
0.0005,0.0000,1,1,nothing
0.0005,0.0000,1,1,nothing
0.0005,0.0000,1,1,nothing
0.0005,0.0000,1,1,nothing
0.0005,0.0000,1,1,nothing
0.0005,0.0000,1,1,nothing
0.0005,0.0000,1,1,nothing
0.0005,0.0000,1,1,nothing
0.0005,0.0000,1,1,nothing
0.0005,0.0000,1,1,nothing
0.0005,-0.0000,1,1,nothing
0.0005,-0.0000,1,1,nothing
0.0005,-0.0000,1,1,nothing
0.0005,-0.0000,1,1,nothing
0.0005,0.0000,1,1,nothing
0.0005,0.0000,1,1,nothing
0.0005,0.0000,1,1,nothing
0.0005,0.0000,1,1,nothing
0.0005,-0.0000,1,1,nothing
0.0005,-0.0000,1,1,nothing
0.0005,-0.0000,1,1,nothing
0.0005,-0.0000,1,1,nothing
0.0004,-0.0001,1,1,nothing
0.0004,-0.0000,1,1,nothing
0.0004,0.0000,1,1,nothing
0.0004,0.0000,1,1,nothing
0.0004,0.0000,1,1,nothing
0.0004,0.0000,1,1,nothing
0.0004,-0.0000,1,1,nothing
0.0004,-0.0000,1,1,nothing
0.0004,-0.0000,1,1,nothing
0.0004,0.0000,1,1,nothing
0.0004,0.0000,1,1,nothing
0.0004,0.0000,1,1,nothing
0.0004,-0.0000,1,1,nothing
0.0004,-0.0000,1,1,nothing
0.0004,-0.0000,1,1,nothing
0.0004,-0.0000,1,1,nothing
0.0004,0.0000,1,1,nothing
0.0004,0.0000,1,1,nothing
0.0004,0.0000,1,1,nothing
0.0004,0.0000,1,1,nothing
0.0004,-0.0000,1,1,nothing
0.0004,0.0000,1,1,nothing
0.0034,0.0337,0,0,nothing
0.0051,0.0337,0,0,nothing
0.0068,0.0337,0,0,nothing
0.0085,0.0337,0,0,nothing
0.0102,0.0337,0,0,nothing
0.0118,0.0337,0,0,nothing
0.0135,0.0337,0,0,nothing
0.0152,0.0337,0,0,nothing
0.0169,0.0337,0,0,nothing
0.0186,0.0337,0,0,nothing
0.0202,0.0336,0,0,nothing
0.0219,0.0336,0,0,nothing
0.0236,0.0336,0,0,nothing
0.0253,0.0336,0,0,nothing
0.0270,0.0336,0,0,nothing
0.0287,0.0336,0,0,nothing
0.0303,0.0336,0,0,nothing
0.0320,0.0336,0,0,nothing
0.0337,0.0336,0,0,nothing
0.0354,0.0336,0,0,nothing
0.0371,0.0336,0,0,nothing
0.0387,0.0336,0,0,nothing
0.0404,0.0336,0,0,nothing
0.0421,0.0336,0,0,nothing
0.0438,0.0336,0,0,nothing
0.0455,0.0336,0,0,nothing
0.0471,0.0336,0,0,nothing
0.0488,0.0336,0,0,nothing
0.0505,0.0336,0,0,nothing
0.0522,0.0336,0,0,nothing
0.0538,0.0336,0,0,nothing
0.0555,0.0336,0,0,nothing
0.0572,0.0336,0,0,nothing
0.0589,0.0336,0,0,nothing
0.0606,0.0336,0,0,nothing
0.0622,0.0336,0,0,nothing
0.0639,0.0336,0,0,nothing
0.0656,0.0336,0,0,nothing
0.0673,0.0336,0,0,nothing
0.0690,0.0336,0,0,nothing
0.0706,0.0336,0,0,nothing
0.0723,0.0336,0,0,nothing
0.0740,0.0336,0,0,nothing
0.0757,0.0336,0,0,nothing
0.0774,0.0336,0,0,nothing
0.0790,0.0336,0,0,nothing
0.0807,0.0336,0,0,nothing
0.0824,0.0336,0,0,nothing
0.0841,0.0336,0,0,nothing
0.0857,0.0336,0,0,nothing
0.0874,0.0336,0,0,nothing
0.0891,0.0336,0,0,nothing
0.0908,0.0336,0,0,nothing
0.0925,0.0336,0,0,nothing
0.0941,0.0336,0,0,nothing
0.0958,0.0336,0,0,nothing
0.0975,0.0336,0,0,nothing
0.0994,0.0383,0,0,main_engine
0.1005,0.0216,0,0,main_engine
0.1019,0.0279,0,0,main_engine
0.1026,0.0145,0,0,main_engine
0.1029,0.0051,0,0,main_engine
0.1036,0.0138,0,0,main_engine
0.1036,0.0014,0,0,main_engine
0.1031,-0.0103,0,0,main_engine
0.1028,-0.0064,0,0,main_engine
0.1033,0.0101,0,0,main_engine
0.1033,0.0007,0,0,main_engine
0.1029,-0.0096,0,0,main_engine
0.1030,0.0021,0,0,main_engine
0.1027,-0.0047,0,0,main_engine
0.1018,-0.0183,0,0,main_engine
0.1015,-0.0067,0,0,main_engine
0.1011,-0.0067,0,0,nothing
0.1008,-0.0067,0,0,nothing
0.1005,-0.0067,0,0,nothing
0.1001,-0.0067,0,0,nothing
0.0998,-0.0067,0,0,nothing
0.0995,-0.0067,0,0,nothing
0.1009,0.0294,0,0,left_engine
0.1049,0.0790,0,0,left_engine
0.1112,0.1258,0,0,left_engine
0.1197,0.1697,0,0,left_engine
0.1305,0.2165,0,0,left_engine
0.1429,0.2475,0,0,left_engine
0.1576,0.2940,0,0,left_engine
0.1723,0.2940,0,0,nothing
0.1870,0.2940,0,0,nothing
0.2017,0.2940,0,0,nothing
0.2164,0.2940,0,0,nothing
0.2311,0.2940,0,0,nothing
0.2434,0.2457,0,0,right_engine
0.2533,0.1983,0,0,right_engine
0.2609,0.1519,0,0,right_engine
0.2662,0.1063,0,0,right_engine
0.2694,0.0645,0,0,right_engine
0.2707,0.0258,0,0,right_engine
0.2695,-0.0230,0,0,right_engine
0.2664,-0.0621,0,0,right_engine
0.2611,-0.1060,0,0,right_engine
0.2537,-0.1492,0,0,right_engine
0.2445,-0.1833,0,0,right_engine
0.2329,-0.2316,0,0,right_engine
0.2214,-0.2316,0,0,nothing
0.2098,-0.2316,0,0,nothing
0.1982,-0.2316,0,0,nothing
0.1866,-0.2316,0,0,nothing
0.1728,-0.2762,0,0,right_engine
0.1566,-0.3243,0,0,right_engine
0.1384,-0.3643,0,0,right_engine
0.1202,-0.3643,0,0,nothing
0.1019,-0.3643,0,0,nothing
0.0837,-0.3643,0,0,nothing
0.0655,-0.3643,0,0,nothing
0.0473,-0.3643,0,0,nothing
0.0291,-0.3643,0,0,nothing
0.0109,-0.3643,0,0,nothing
-0.0074,-0.3643,0,0,nothing
-0.0256,-0.3643,0,0,nothing
-0.0438,-0.3643,0,0,nothing
-0.0604,-0.3330,0,0,left_engine
-0.0753,-0.2974,0,0,left_engine
-0.0878,-0.2502,0,0,left_engine
-0.1003,-0.2502,0,0,nothing
-0.1128,-0.2502,0,0,nothing
-0.1253,-0.2502,0,0,nothing
-0.1378,-0.2502,0,0,nothing
-0.1483,-0.2096,0,0,left_engine
-0.1572,-0.1767,0,0,left_engine
-0.1642,-0.1411,0,0,left_engine
-0.1691,-0.0976,0,0,left_engine
-0.1740,-0.0976,0,0,nothing
-0.1788,-0.0976,0,0,nothing
-0.1837,-0.0976,0,0,nothing
-0.1886,-0.0976,0,0,nothing
-0.1935,-0.0976,0,0,nothing
-0.2001,-0.1329,0,0,right_engine
-0.2086,-0.1701,0,0,right_engine
-0.2195,-0.2173,0,0,right_engine
-0.2320,-0.2492,0,0,right_engine
-0.2462,-0.2855,0,0,right_engine
-0.2623,-0.3202,0,0,right_engine
-0.2807,-0.3695,0,0,right_engine
-0.3012,-0.4103,0,0,right_engine
-0.3235,-0.4447,0,0,right_engine
-0.3474,-0.4789,0,0,right_engine
-0.3730,-0.5113,0,0,right_engine
-0.4005,-0.5494,0,0,right_engine
-0.4299,-0.5895,0,0,right_engine
-0.4610,-0.6221,0,0,right_engine
-0.4940,-0.6595,0,0,right_engine
-0.5291,-0.7024,0,0,right_engine
-0.5659,-0.7362,0,0,right_engine
-0.6028,-0.7362,0,0,nothing
-0.6396,-0.7361,0,0,nothing
-0.6764,-0.7360,0,0,nothing
-0.7108,-0.6892,0,0,left_engine
-0.7425,-0.6343,0,0,left_engine
-0.7721,-0.5908,0,0,left_engine
-0.7993,-0.5452,0,0,left_engine
-0.8240,-0.4940,0,0,left_engine
-0.8463,-0.4459,0,0,left_engine
-0.8667,-0.4067,0,0,left_engine
-0.8849,-0.3643,0,0,left_engine
-0.9010,-0.3230,0,0,left_engine
-0.9147,-0.2728,0,0,left_engine
-0.9262,-0.2304,0,0,left_engine
-0.9353,-0.1827,0,0,left_engine
-0.9417,-0.1285,0,0,left_engine
-0.9453,-0.0716,0,0,left_engine
-0.9466,-0.0251,0,0,left_engine
-0.9461,0.0100,0,0,left_engine
-0.9456,0.0100,0,0,nothing
-0.9451,0.0100,0,0,nothing
-0.9446,0.0100,0,0,nothing
-0.9412,0.0666,0,0,left_engine
-0.9354,0.1167,0,0,left_engine
-0.9278,0.1522,0,0,left_engine
-0.9176,0.2040,0,0,left_engine
-0.9052,0.2482,0,0,left_engine
-0.8928,0.2482,0,0,nothing
-0.8804,0.2482,0,0,nothing
-0.8680,0.2482,0,0,nothing
-0.8551,0.2563,0,0,main_engine
-0.8426,0.2506,0,0,main_engine
-0.8299,0.2533,0,0,main_engine
-0.8177,0.2447,0,0,main_engine
-0.8055,0.2437,0,0,main_engine
-0.7929,0.2521,0,0,main_engine
-0.7796,0.2672,0,0,main_engine
-0.7668,0.2544,0,0,main_engine
-0.7541,0.2544,0,0,nothing
-0.7414,0.2544,0,0,nothing
-0.7287,0.2544,0,0,nothing
-0.7160,0.2544,0,0,nothing
-0.7032,0.2544,0,0,nothing
-0.6905,0.2544,0,0,nothing
-0.6778,0.2544,0,0,nothing
-0.6651,0.2544,0,0,nothing
-0.6519,0.2647,0,0,main_engine
-0.6380,0.2779,0,0,main_engine
-0.6238,0.2833,0,0,main_engine
-0.6096,0.2833,0,0,nothing
-0.5955,0.2833,0,0,nothing
-0.5813,0.2833,0,0,nothing
-0.5680,0.2667,0,0,main_engine
-0.5541,0.2776,0,0,main_engine
-0.5402,0.2776,0,0,nothing
-0.5263,0.2776,0,0,nothing
-0.5117,0.2919,0,0,main_engine
-0.4968,0.2988,0,0,main_engine
-0.4821,0.2941,0,0,main_engine
-0.4674,0.2941,0,0,nothing
-0.4527,0.2941,0,0,nothing
-0.4380,0.2941,0,0,nothing
-0.4233,0.2941,0,0,nothing
-0.4086,0.2941,0,0,nothing
-0.3939,0.2941,0,0,nothing
-0.3785,0.3070,0,0,main_engine
-0.3635,0.3003,0,0,main_engine
-0.3485,0.3003,0,0,nothing
-0.3335,0.3003,0,0,nothing
-0.3184,0.3003,0,0,nothing
-0.3034,0.3003,0,0,nothing
-0.2884,0.3003,0,0,nothing
-0.2734,0.3003,0,0,nothing
-0.2584,0.3003,0,0,nothing
-0.2434,0.3002,0,0,nothing
-0.2284,0.3002,0,0,nothing
-0.2134,0.3002,0,0,nothing
-0.1983,0.3002,0,0,nothing
-0.1833,0.3002,0,0,nothing
-0.1683,0.3002,0,0,nothing
-0.1533,0.3002,0,0,nothing
-0.1383,0.3002,0,0,nothing
-0.1233,0.3002,0,0,nothing
-0.1083,0.3002,0,0,nothing
-0.0933,0.3002,0,0,nothing
-0.0783,0.3002,0,0,nothing
-0.0633,0.3002,0,0,nothing
-0.0482,0.3002,0,0,nothing
-0.0332,0.3002,0,0,nothing
-0.0182,0.3002,0,0,nothing
-0.0032,0.3002,0,0,nothing
0.0118,0.3002,0,0,nothing
0.0268,0.3002,0,0,nothing
0.0418,0.3002,0,0,nothing
0.0568,0.3002,0,0,nothing
0.0718,0.3001,0,0,nothing
0.0868,0.3001,0,0,nothing
0.1018,0.3001,0,0,nothing
0.1168,0.3001,0,0,nothing
0.1318,0.3001,0,0,nothing
0.1469,0.3001,0,0,nothing
0.1619,0.3001,0,0,nothing
0.1769,0.3001,0,0,nothing
0.1919,0.3001,0,0,nothing
0.2069,0.3001,0,0,nothing
0.2219,0.3001,0,0,nothing
0.2369,0.3001,0,0,nothing
0.2519,0.3001,0,0,nothing
0.2669,0.3001,0,0,nothing
0.2819,0.3001,0,0,nothing
0.2969,0.3001,0,0,nothing
0.3119,0.3001,0,0,nothing
0.3269,0.3001,0,0,nothing
0.3419,0.3001,0,0,nothing
0.3569,0.3001,0,0,nothing
0.3742,0.3466,0,0,left_engine
0.3934,0.3823,0,0,left_engine
0.4147,0.4271,0,0,left_engine
0.4361,0.4271,0,0,nothing
0.4574,0.4271,0,0,nothing
0.4788,0.4271,0,0,nothing
0.5001,0.4270,0,0,nothing
0.5215,0.4270,0,0,nothing
0.5249,0.0693,0,1,nothing
0.5101,-0.2964,0,1,nothing
0.4784,-0.6347,0,1,nothing
0.4370,-0.8288,0,1,nothing
0.3942,-0.8557,0,1,nothing
0.3548,-0.7868,0,1,left_engine
0.3173,-0.7500,0,0,left_engine
0.2817,-0.7137,0,0,left_engine
0.2480,-0.6723,0,0,left_engine
0.2161,-0.6396,0,0,left_engine
0.1857,-0.6062,0,0,left_engine
0.1574,-0.5661,0,0,left_engine
0.1291,-0.5660,0,0,nothing
0.1033,-0.5169,0,0,left_engine
0.0791,-0.4835,0,0,left_engine
0.0566,-0.4503,0,0,left_engine
0.0341,-0.4503,0,0,nothing
0.0116,-0.4503,0,0,nothing
-0.0109,-0.4503,0,0,nothing
-0.0334,-0.4502,1,0,nothing
-0.0375,-0.0789,1,0,nothing
-0.0227,0.2966,1,1,nothing
-0.0074,0.3050,1,1,left_engine
0.0055,0.2585,1,1,left_engine
0.0140,0.1692,1,1,left_engine
0.0164,0.0477,1,1,left_engine
0.0147,-0.0335,1,1,left_engine
0.0126,-0.0411,1,1,left_engine
0.0118,-0.0175,1,1,left_engine
0.0105,-0.0255,1,1,nothing
0.0093,-0.0232,0,0,nothing
0.0086,-0.0152,0,0,nothing
0.0101,0.0309,0,0,left_engine
0.0137,0.0716,0,0,left_engine
0.0188,0.1020,0,0,left_engine
0.0256,0.1351,0,0,left_engine
0.0344,0.1774,0,0,left_engine
0.0451,0.2129,0,0,left_engine
0.0579,0.2563,0,0,left_engine
0.0726,0.2937,0,0,left_engine
0.0889,0.3265,0,0,left_engine
0.1071,0.3639,0,0,left_engine
0.1253,0.3638,0,0,nothing
0.1435,0.3638,0,0,nothing
0.1617,0.3638,0,0,nothing
0.1685,0.1362,0,1,nothing
0.1746,0.1233,0,1,nothing
0.1802,0.1102,0,1,nothing
0.1850,0.0970,0,1,nothing
0.1892,0.0836,0,1,nothing
0.1927,0.0697,0,1,nothing
0.1955,0.0564,0,1,nothing
0.1976,0.0426,0,0,nothing
0.1991,0.0287,0,0,nothing
0.1998,0.0148,0,0,nothing
0.1998,0.0008,0,0,nothing
0.1992,-0.0132,0,0,nothing
0.1978,-0.0271,0,0,nothing
0.1958,-0.0411,0,0,nothing
0.1930,-0.0549,0,0,nothing
0.1896,-0.0687,0,0,nothing
0.1855,-0.0824,0,0,nothing
0.1807,-0.0959,0,0,nothing
0.1752,-0.1093,0,0,nothing
0.1695,-0.1147,0,0,left_engine
0.1634,-0.1215,0,0,left_engine
0.1570,-0.1289,0,0,left_engine
0.1502,-0.1352,0,0,left_engine
0.1428,-0.1480,0,0,nothing
0.1348,-0.1605,0,0,nothing
0.1261,-0.1728,0,0,nothing
0.1169,-0.1848,0,0,nothing
0.1074,-0.1898,0,0,left_engine
0.0979,-0.1904,0,0,left_engine
0.0882,-0.1931,0,0,left_engine
0.0786,-0.1929,0,0,left_engine
0.0688,-0.1947,0,0,left_engine
0.0590,-0.1966,0,0,left_engine
0.0491,-0.1977,0,0,left_engine
0.0392,-0.1978,0,0,left_engine
0.0293,-0.1984,0,0,left_engine
0.0193,-0.2005,0,0,left_engine
0.0093,-0.1990,0,0,left_engine
-0.0011,-0.2095,0,0,nothing
-0.0047,-0.0718,1,0,nothing
-0.0047,-0.0001,1,0,nothing
-0.0047,-0.0001,1,0,nothing
-0.0035,0.0240,1,0,left_engine
-0.0027,0.0172,1,0,left_engine
-0.0019,0.0157,1,0,left_engine
-0.0012,0.0140,1,0,left_engine
-0.0011,0.0022,1,0,nothing
-0.0011,0.0000,1,0,nothing
-0.0011,0.0000,1,0,nothing
-0.0011,-0.0000,1,0,nothing
-0.0011,-0.0000,1,0,nothing
-0.0011,-0.0000,1,0,nothing
-0.0011,0.0000,1,0,nothing
-0.0011,0.0000,1,0,nothing
-0.0011,-0.0000,1,0,nothing
-0.0011,-0.0000,1,0,nothing
-0.0011,0.0000,1,0,nothing
-0.0011,0.0000,1,0,nothing
-0.0011,0.0000,1,0,nothing
-0.0011,0.0000,1,0,nothing
-0.0011,0.0000,1,0,nothing
-0.0011,0.0000,1,0,nothing
-0.0011,0.0000,1,0,nothing
-0.0011,0.0000,1,0,nothing
-0.0011,-0.0000,1,0,nothing
-0.0011,-0.0000,1,0,nothing
-0.0011,-0.0000,1,0,nothing
-0.0017,-0.0129,1,1,nothing
-0.0017,-0.0004,1,0,nothing
-0.0017,0.0000,1,1,nothing
-0.0017,0.0000,1,0,nothing
-0.0017,0.0000,1,0,nothing
-0.0017,-0.0000,1,0,nothing
-0.0017,-0.0000,1,0,nothing
-0.0017,-0.0000,1,0,nothing
-0.0017,0.0000,1,0,nothing
-0.0017,-0.0000,1,0,nothing
-0.0017,0.0000,1,0,nothing
-0.0017,-0.0000,1,0,nothing
-0.0017,-0.0000,1,0,nothing
-0.0017,0.0000,1,0,nothing
-0.0017,0.0000,1,0,nothing
-0.0017,0.0000,1,0,nothing
-0.0017,0.0000,1,0,nothing
-0.0017,-0.0000,1,0,nothing
-0.0017,0.0000,1,0,nothing
-0.0017,0.0000,1,0,nothing
-0.0017,0.0000,1,0,nothing
-0.0017,0.0000,1,0,nothing
-0.0017,0.0000,1,0,nothing
-0.0017,0.0000,1,0,nothing
-0.0017,0.0000,1,0,nothing
-0.0017,0.0000,1,0,nothing
-0.0017,-0.0000,1,0,nothing
-0.0017,0.0000,1,0,nothing
-0.0017,-0.0000,1,0,nothing
-0.0017,-0.0000,1,0,nothing
-0.0017,-0.0000,1,0,nothing
-0.0017,-0.0001,1,0,nothing
-0.0018,-0.0001,1,0,nothing
-0.0018,-0.0000,1,0,nothing
-0.0018,0.0000,1,0,nothing
-0.0017,0.0000,1,0,nothing
-0.0017,0.0000,1,0,nothing
-0.0017,-0.0000,1,0,nothing
-0.0017,-0.0000,1,0,nothing
-0.0017,-0.0000,1,0,nothing
-0.0017,0.0000,1,0,nothing
-0.0017,0.0000,1,0,nothing
-0.0017,0.0000,1,0,nothing
-0.0017,0.0000,1,0,nothing
-0.0017,-0.0000,1,0,nothing
-0.0017,-0.0000,1,0,nothing
-0.0017,-0.0000,1,0,nothing
-0.0017,0.0000,1,0,nothing
-0.0017,0.0000,1,0,nothing
-0.0017,0.0000,1,0,nothing
-0.0017,-0.0000,1,0,nothing
-0.0017,-0.0000,1,0,nothing
-0.0017,0.0000,1,0,nothing
0.0156,0.1541,0,0,nothing
0.0233,0.1541,0,0,nothing
0.0310,0.1540,0,0,nothing
0.0387,0.1540,0,0,nothing
0.0464,0.1540,0,0,nothing
0.0541,0.1540,0,0,nothing
0.0618,0.1539,0,0,nothing
0.0695,0.1539,0,0,nothing
0.0772,0.1539,0,0,nothing
0.0849,0.1539,0,0,nothing
0.0926,0.1538,0,0,nothing
0.1002,0.1538,0,0,nothing
0.1079,0.1538,0,0,nothing
0.1156,0.1538,0,0,nothing
0.1233,0.1537,0,0,nothing
0.1310,0.1537,0,0,nothing
0.1387,0.1537,0,0,nothing
0.1464,0.1537,0,0,nothing
0.1540,0.1536,0,0,nothing
0.1617,0.1536,0,0,nothing
0.1694,0.1536,0,0,nothing
0.1771,0.1536,0,0,nothing
0.1848,0.1536,0,0,nothing
0.1924,0.1535,0,0,nothing
0.2005,0.1616,0,0,nothing
0.2082,0.1535,0,0,nothing
0.2159,0.1535,0,0,nothing
0.2235,0.1535,0,0,nothing
0.2312,0.1535,0,0,nothing
0.2389,0.1535,0,0,nothing
0.2466,0.1535,0,0,nothing
0.2542,0.1535,0,0,nothing
0.2619,0.1535,0,0,nothing
0.2696,0.1535,0,0,nothing
0.2773,0.1535,0,0,nothing
0.0035,0.0342,0,0,nothing
0.0052,0.0342,0,0,nothing
0.0069,0.0342,0,0,nothing
0.0086,0.0342,0,0,nothing
0.0103,0.0342,0,0,nothing
0.0120,0.0342,0,0,nothing
0.0137,0.0342,0,0,nothing
0.0154,0.0342,0,0,nothing
0.0171,0.0341,0,0,nothing
0.0188,0.0341,0,0,nothing
0.0205,0.0341,0,0,nothing
0.0222,0.0341,0,0,nothing
0.0240,0.0341,0,0,nothing
0.0257,0.0341,0,0,nothing
0.0274,0.0341,0,0,nothing
0.0291,0.0341,0,0,nothing
0.0308,0.0341,0,0,nothing
0.0325,0.0341,0,0,nothing
0.0342,0.0341,0,0,nothing
0.0359,0.0341,0,0,nothing
0.0376,0.0341,0,0,nothing
0.0393,0.0341,0,0,nothing
0.0410,0.0341,0,0,nothing
0.0427,0.0341,0,0,nothing
0.0444,0.0341,0,0,nothing
0.0461,0.0341,0,0,nothing
0.0478,0.0341,0,0,nothing
0.0495,0.0341,0,0,nothing
0.0512,0.0341,0,0,nothing
0.0529,0.0341,0,0,nothing
0.0546,0.0341,0,0,nothing
0.0563,0.0341,0,0,nothing
0.0580,0.0341,0,0,nothing
0.0597,0.0341,0,0,nothing
0.0614,0.0341,0,0,nothing
0.0631,0.0341,0,0,nothing
0.0648,0.0341,0,0,nothing
0.0666,0.0341,0,0,nothing
0.0683,0.0341,0,0,nothing
0.0700,0.0341,0,0,nothing
0.0717,0.0341,0,0,nothing
0.0734,0.0341,0,0,nothing
0.0751,0.0341,0,0,nothing
0.0768,0.0341,0,0,nothing
0.0785,0.0341,0,0,nothing
0.0802,0.0341,0,0,nothing
0.0819,0.0341,0,0,nothing
0.0836,0.0341,0,0,nothing
0.0853,0.0341,0,0,nothing
0.0870,0.0341,0,0,nothing
0.0887,0.0341,0,0,nothing
0.0904,0.0341,0,0,nothing
0.0921,0.0341,0,0,nothing
0.0938,0.0341,0,0,nothing
0.0955,0.0341,0,0,nothing
0.0972,0.0341,0,0,nothing
0.0989,0.0341,0,0,nothing
0.1006,0.0341,0,0,nothing
0.1023,0.0341,0,0,nothing
0.1040,0.0341,0,0,nothing
0.1057,0.0341,0,0,nothing
0.1074,0.0341,0,0,nothing
0.1091,0.0341,0,0,nothing
0.1108,0.0341,0,0,nothing
0.1125,0.0341,0,0,nothing
0.1142,0.0341,0,0,nothing
0.1159,0.0341,0,0,nothing
0.1177,0.0341,0,0,nothing
0.1194,0.0341,0,0,nothing
0.1211,0.0341,0,0,nothing
0.1228,0.0341,0,0,nothing
0.1245,0.0341,0,0,nothing
0.1262,0.0341,0,0,nothing
0.1279,0.0341,0,0,nothing
0.1299,0.0402,0,0,main_engine
0.1317,0.0369,0,0,main_engine
0.1341,0.0477,0,0,main_engine
0.1365,0.0469,0,0,main_engine
0.1388,0.0469,0,0,nothing
0.1411,0.0469,0,0,nothing
0.1435,0.0469,0,0,nothing
0.1458,0.0469,0,0,nothing
0.1482,0.0469,0,0,nothing
0.1505,0.0469,0,0,nothing
0.1529,0.0469,0,0,nothing
0.1552,0.0469,0,0,nothing
0.1576,0.0469,0,0,nothing
0.1599,0.0469,0,0,nothing
0.1623,0.0469,0,0,nothing
0.1646,0.0469,0,0,nothing
0.1669,0.0469,0,0,nothing
0.1693,0.0469,0,0,nothing
0.1716,0.0469,0,0,nothing
0.1740,0.0469,0,0,nothing
0.1757,0.0348,0,0,main_engine
0.1778,0.0424,0,0,main_engine
0.1800,0.0430,0,0,main_engine
0.1828,0.0563,0,0,main_engine
0.1850,0.0441,0,0,main_engine
0.1872,0.0441,0,0,nothing
0.1894,0.0441,0,0,nothing
0.1916,0.0441,0,0,nothing
0.1938,0.0441,0,0,nothing
0.1960,0.0441,0,0,nothing
0.1982,0.0441,0,0,nothing
0.2004,0.0441,0,0,nothing
0.2026,0.0441,0,0,nothing
0.2048,0.0441,0,0,nothing
0.2070,0.0441,0,0,nothing
0.2092,0.0441,0,0,nothing
0.2114,0.0441,0,0,nothing
0.2112,-0.0037,0,0,right_engine
0.2092,-0.0407,0,0,right_engine
0.2054,-0.0769,0,0,right_engine
0.1993,-0.1221,0,0,right_engine
0.1907,-0.1704,0,0,right_engine
0.1822,-0.1704,0,0,nothing
0.1737,-0.1704,0,0,nothing
0.1652,-0.1704,0,0,nothing
0.1567,-0.1704,0,0,nothing
0.1482,-0.1704,0,0,nothing
0.1396,-0.1704,0,0,nothing
0.1311,-0.1704,0,0,nothing
0.1226,-0.1704,0,0,nothing
0.1165,-0.1222,0,0,left_engine
0.1124,-0.0809,0,0,left_engine
0.1100,-0.0483,0,0,left_engine
0.1076,-0.0483,0,0,nothing
0.1052,-0.0483,0,0,nothing
0.1005,-0.0948,0,0,right_engine
0.0940,-0.1292,0,0,right_engine
0.0852,-0.1765,0,0,right_engine
0.0747,-0.2089,0,0,right_engine
0.0620,-0.2548,0,0,right_engine
0.0493,-0.2548,0,0,nothing
0.0385,-0.2158,0,0,left_engine
0.0299,-0.1707,0,0,left_engine
0.0235,-0.1277,0,0,left_engine
0.0172,-0.1277,0,0,nothing
0.0108,-0.1277,0,0,nothing
0.0067,-0.0819,0,0,left_engine
0.0051,-0.0324,0,0,left_engine
0.0057,0.0132,0,0,left_engine
0.0064,0.0132,0,0,nothing
0.0070,0.0132,0,0,nothing
0.0077,0.0132,0,0,nothing
0.0084,0.0132,0,0,nothing
0.0090,0.0132,0,0,nothing
0.0097,0.0132,0,0,nothing
0.0085,-0.0227,0,0,right_engine
0.0052,-0.0658,0,0,right_engine
-0.0003,-0.1116,0,0,right_engine
-0.0075,-0.1441,0,0,right_engine
-0.0165,-0.1797,0,0,right_engine
-0.0276,-0.2205,0,0,right_engine
-0.0410,-0.2688,0,0,right_engine
-0.0564,-0.3077,0,0,right_engine
-0.0733,-0.3380,0,0,right_engine
-0.0924,-0.3833,0,0,right_engine
-0.1138,-0.4270,0,0,right_engine
-0.1370,-0.4641,0,0,right_engine
-0.1621,-0.5010,0,0,right_engine
-0.1895,-0.5499,0,0,right_engine
-0.2190,-0.5898,0,0,right_engine
-0.2503,-0.6262,0,0,right_engine
-0.2816,-0.6261,0,0,nothing
-0.3109,-0.5848,0,0,left_engine
-0.3379,-0.5396,0,0,left_engine
-0.3633,-0.5090,0,0,left_engine
-0.3866,-0.4650,0,0,left_engine
-0.4098,-0.4650,0,0,nothing
-0.4325,-0.4526,0,0,main_engine
-0.4555,-0.4611,0,0,main_engine
-0.4794,-0.4776,0,0,main_engine
-0.5034,-0.4795,0,0,main_engine
-0.5277,-0.4876,0,0,main_engine
-0.5523,-0.4905,0,0,main_engine
-0.5764,-0.4823,0,0,main_engine
-0.6005,-0.4815,0,0,main_engine
-0.6247,-0.4847,0,0,main_engine
-0.6489,-0.4847,0,0,nothing
-0.6732,-0.4847,0,0,nothing
-0.6974,-0.4847,0,0,nothing
-0.7192,-0.4351,0,0,left_engine
-0.7391,-0.3991,0,0,left_engine
-0.7567,-0.3520,0,0,left_engine
-0.7723,-0.3125,0,0,left_engine
-0.7853,-0.2588,0,0,left_engine
-0.7982,-0.2588,0,0,nothing
-0.8112,-0.2588,0,0,nothing
-0.8241,-0.2588,0,0,nothing
-0.8370,-0.2588,0,0,nothing
-0.8500,-0.2588,0,0,nothing
-0.8612,-0.2237,0,0,left_engine
-0.8699,-0.1758,0,0,left_engine
-0.8767,-0.1346,0,0,left_engine
-0.8813,-0.0923,0,0,left_engine
-0.8839,-0.0520,0,0,left_engine
-0.8837,0.0046,0,0,left_engine
-0.8807,0.0597,0,0,left_engine
-0.8757,0.0996,0,0,left_engine
-0.8682,0.1495,0,0,left_engine
-0.8583,0.1977,0,0,left_engine
-0.8457,0.2528,0,0,left_engine
-0.8308,0.2981,0,0,left_engine
-0.8137,0.3426,0,0,left_engine
-0.7944,0.3847,0,0,left_engine
-0.7751,0.3869,0,0,main_engine
-0.7564,0.3733,0,0,main_engine
-0.7383,0.3618,0,0,main_engine
-0.7207,0.3525,0,0,main_engine
-0.7030,0.3538,0,0,main_engine
-0.6855,0.3512,0,0,main_engine
-0.6679,0.3512,0,0,nothing
-0.6503,0.3512,0,0,nothing
-0.6328,0.3512,0,0,nothing
-0.6159,0.3383,0,0,main_engine
-0.5998,0.3218,0,0,main_engine
-0.5842,0.3117,0,0,main_engine
-0.5686,0.3117,0,0,nothing
-0.5530,0.3117,0,0,nothing
-0.5374,0.3117,0,0,nothing
-0.5218,0.3117,0,0,nothing
-0.5063,0.3117,0,0,nothing
-0.4907,0.3117,0,0,nothing
-0.4751,0.3117,0,0,nothing
-0.4595,0.3117,0,0,nothing
-0.4439,0.3117,0,0,nothing
-0.4283,0.3117,0,0,nothing
-0.4128,0.3117,0,0,nothing
-0.3972,0.3117,0,0,nothing
-0.3816,0.3117,0,0,nothing
-0.3660,0.3117,0,0,nothing
-0.3504,0.3117,0,0,nothing
-0.3348,0.3117,0,0,nothing
-0.3192,0.3117,0,0,nothing
-0.3037,0.3117,0,0,nothing
-0.2881,0.3116,0,0,nothing
-0.2725,0.3116,0,0,nothing
-0.2569,0.3116,0,0,nothing
-0.2413,0.3116,0,0,nothing
-0.2258,0.3116,0,0,nothing
-0.2102,0.3116,0,0,nothing
-0.1963,0.2771,0,0,right_engine
-0.1844,0.2380,0,0,right_engine
-0.1747,0.1944,0,0,right_engine
-0.1650,0.1944,0,0,nothing
-0.1553,0.1943,0,0,nothing
-0.1479,0.1472,0,0,right_engine
-0.1423,0.1119,0,0,right_engine
-0.1385,0.0769,0,0,right_engine
-0.1346,0.0769,0,0,nothing
-0.1308,0.0769,0,0,nothing
-0.1269,0.0769,0,0,nothing
-0.1231,0.0768,0,0,nothing
-0.1193,0.0768,0,0,nothing
-0.1154,0.0768,0,0,nothing
-0.1116,0.0768,0,0,nothing
-0.1077,0.0768,0,0,nothing
-0.1019,0.1172,0,0,left_engine
-0.0935,0.1669,0,0,left_engine
-0.0829,0.2133,0,0,left_engine
-0.0722,0.2133,0,0,nothing
-0.0615,0.2133,0,0,nothing
-0.0489,0.2526,0,0,left_engine
-0.0363,0.2526,0,0,nothing
-0.0217,0.2922,0,0,left_engine
-0.0071,0.2921,0,0,nothing
0.0075,0.2921,0,0,nothing
0.0222,0.2921,0,0,nothing
0.0383,0.3229,0,0,left_engine
0.0544,0.3229,0,0,nothing
0.0706,0.3229,0,0,nothing
0.0867,0.3229,0,0,nothing
0.1029,0.3228,0,0,nothing
0.1190,0.3228,0,0,nothing
0.1352,0.3228,0,0,nothing
0.1513,0.3228,0,0,nothing
0.1674,0.3228,0,0,nothing
0.1836,0.3228,0,0,nothing
0.1997,0.3228,0,0,nothing
0.2159,0.3228,0,0,nothing
0.2320,0.3228,0,0,nothing
0.2481,0.3228,0,0,nothing
0.2643,0.3228,0,0,nothing
0.2804,0.3228,0,0,nothing
0.2966,0.3228,0,0,nothing
0.3127,0.3228,0,0,nothing
0.3288,0.3228,0,0,nothing
0.3448,0.3201,0,0,main_engine
0.3608,0.3201,0,0,nothing
0.3768,0.3201,0,0,nothing
0.3928,0.3201,0,0,nothing
0.4087,0.3173,0,0,main_engine
0.4238,0.3013,0,0,main_engine
0.4392,0.3083,0,0,main_engine
0.4546,0.3083,0,0,nothing
0.4700,0.3083,0,0,nothing
0.4854,0.3083,0,0,nothing
0.5008,0.3083,0,0,nothing
0.5163,0.3082,0,0,nothing
0.5317,0.3082,0,0,nothing
0.5471,0.3082,0,0,nothing
0.5625,0.3082,0,0,nothing
0.5779,0.3082,0,0,nothing
0.5933,0.3082,0,0,nothing
0.6087,0.3082,0,0,nothing
0.6241,0.3082,0,0,nothing
0.6395,0.3082,0,0,nothing
0.6550,0.3082,0,0,nothing
0.6704,0.3082,0,0,nothing
0.6858,0.3082,0,0,nothing
0.7012,0.3082,0,0,nothing
0.7166,0.3082,0,0,nothing
0.7320,0.3082,0,0,nothing
0.7474,0.3082,0,0,nothing
0.7628,0.3082,0,0,nothing
0.7782,0.3082,0,0,nothing
0.7936,0.3082,0,0,nothing
0.8090,0.3082,0,0,nothing
0.8244,0.3081,0,0,nothing
0.8399,0.3081,0,0,nothing
0.8553,0.3081,0,0,nothing
0.8707,0.3081,0,0,nothing
0.8861,0.3081,0,0,nothing
0.9015,0.3081,0,0,nothing
0.9161,0.2923,0,0,main_engine
0.9312,0.3022,0,0,main_engine
0.9467,0.3100,0,0,main_engine
0.9626,0.3170,0,0,main_engine
0.9784,0.3176,0,0,main_engine
0.9935,0.3014,0,0,main_engine
1.0084,0.2978,0,0,main_engine
1.0232,0.2956,0,0,main_engine
1.0376,0.2878,0,0,main_engine
1.0524,0.2973,0,0,main_engine
1.0673,0.2973,0,0,nothing
1.0822,0.2973,0,0,nothing
1.0970,0.2973,0,0,nothing
1.1119,0.2973,0,0,nothing
1.1268,0.2973,0,0,nothing
1.1416,0.2973,0,0,nothing
1.1565,0.2973,0,0,nothing
1.1689,0.2488,0,0,right_engine
1.1790,0.2016,0,0,right_engine
1.1868,0.1563,0,0,right_engine
1.1946,0.1563,0,0,nothing
1.2025,0.1563,0,0,nothing
1.2103,0.1563,0,0,nothing
1.2181,0.1563,0,0,nothing
1.2259,0.1563,0,0,nothing
1.2360,0.2018,0,0,left_engine
1.2489,0.2573,0,0,left_engine
1.2637,0.2973,0,0,left_engine
1.2806,0.3381,0,0,left_engine
1.3000,0.3877,0,0,left_engine
1.3194,0.3877,0,0,nothing
1.3388,0.3877,0,0,nothing
1.3582,0.3877,0,0,nothing
1.3754,0.3441,0,0,right_engine
1.3907,0.3063,0,0,right_engine
1.4036,0.2589,0,0,right_engine
1.4147,0.2206,0,0,right_engine
1.4237,0.1815,0,0,right_engine
1.4302,0.1286,0,0,right_engine
1.4339,0.0753,0,0,right_engine
1.4357,0.0362,0,0,right_engine
1.4357,-0.0016,0,0,right_engine
1.4326,-0.0619,0,0,right_engine
1.4268,-0.1162,0,0,right_engine
1.4188,-0.1591,0,0,right_engine
1.4079,-0.2176,0,0,right_engine
1.3948,-0.2627,0,0,right_engine
1.3788,-0.3196,0,0,right_engine
1.3602,-0.3714,0,0,right_engine
1.3397,-0.4103,0,0,right_engine
1.3172,-0.4511,0,0,right_engine
1.2925,-0.4926,0,0,right_engine
1.2658,-0.5350,0,0,right_engine
1.2362,-0.5922,0,0,right_engine
1.2037,-0.6488,0,0,right_engine
1.1690,-0.6951,0,0,right_engine
1.1322,-0.7358,0,0,right_engine
1.0954,-0.7358,0,0,nothing
1.0586,-0.7357,0,0,nothing
1.0218,-0.7356,0,0,nothing
0.9851,-0.7356,0,0,nothing
0.9483,-0.7355,0,0,nothing
0.9115,-0.7354,0,0,nothing
0.8747,-0.7353,0,0,nothing
0.8380,-0.7353,0,0,nothing
0.8012,-0.7352,0,0,nothing
0.7645,-0.7351,0,0,nothing
0.7277,-0.7351,0,0,nothing
0.6910,-0.7350,0,0,nothing
0.6542,-0.7349,0,0,nothing
0.6175,-0.7349,0,0,nothing
0.5807,-0.7348,0,0,nothing
0.5440,-0.7347,0,0,nothing
0.5073,-0.7347,0,0,nothing
0.4705,-0.7346,0,0,nothing
0.4338,-0.7345,0,0,nothing
0.3971,-0.7345,0,0,nothing
0.3604,-0.7344,0,0,nothing
0.3236,-0.7343,0,0,nothing
0.2889,-0.6945,0,0,left_engine
0.2567,-0.6445,0,0,left_engine
0.2245,-0.6445,0,0,nothing
0.1922,-0.6445,0,0,nothing
0.1600,-0.6444,0,0,nothing
0.1278,-0.6444,0,0,nothing
0.0956,-0.6443,0,0,nothing
0.0634,-0.6443,0,0,nothing
0.0312,-0.6442,0,0,nothing
-0.0010,-0.6442,0,0,nothing
-0.0332,-0.6429,0,0,main_engine
-0.0659,-0.6545,0,0,main_engine
-0.0984,-0.6496,0,0,main_engine
-0.1309,-0.6495,0,0,nothing
-0.1633,-0.6495,0,0,nothing
-0.1958,-0.6494,0,0,nothing
-0.2283,-0.6494,0,0,nothing
-0.2608,-0.6494,0,0,nothing
-0.2932,-0.6493,0,0,nothing
-0.3257,-0.6493,0,0,nothing
-0.3581,-0.6492,0,0,nothing
-0.3889,-0.6147,0,0,left_engine
-0.4177,-0.5768,0,0,left_engine
-0.4444,-0.5341,0,0,left_engine
-0.4687,-0.4860,0,0,left_engine
-0.4914,-0.4537,0,0,left_engine
-0.5115,-0.4024,0,0,left_engine
-0.5316,-0.4024,0,0,nothing
-0.5518,-0.4024,0,0,nothing
-0.5719,-0.4024,0,0,nothing
-0.5920,-0.4024,0,0,nothing
-0.6101,-0.3609,0,0,left_engine
-0.6257,-0.3126,0,0,left_engine
-0.6387,-0.2596,0,0,left_engine
-0.6490,-0.2075,0,0,left_engine
-0.6594,-0.2075,0,0,nothing
-0.6698,-0.2075,0,0,nothing
-0.6802,-0.2075,0,0,nothing
-0.6905,-0.2075,0,0,nothing
-0.7009,-0.2075,0,0,nothing
-0.7136,-0.2539,0,0,right_engine
-0.7282,-0.2924,0,0,right_engine
-0.7447,-0.3289,0,0,right_engine
-0.7632,-0.3712,0,0,right_engine
-0.7839,-0.4138,0,0,right_engine
-0.8065,-0.4520,0,0,right_engine
-0.8310,-0.4892,0,0,right_engine
-0.8555,-0.4892,0,0,nothing
-0.8799,-0.4892,0,0,nothing
-0.9016,-0.4333,0,0,left_engine
-0.9205,-0.3791,0,0,left_engine
-0.9375,-0.3394,0,0,left_engine
-0.9516,-0.2815,0,0,left_engine
-0.9630,-0.2292,0,0,left_engine
-0.9724,-0.1876,0,0,left_engine
-0.9793,-0.1378,0,0,left_engine
-0.9833,-0.0798,0,0,left_engine
-0.9848,-0.0300,0,0,left_engine
-0.9834,0.0284,0,0,left_engine
-0.9801,0.0663,0,0,left_engine
-0.9744,0.1122,0,0,left_engine
-0.9662,0.1657,0,0,left_engine
-0.9559,0.2051,0,0,left_engine
-0.9457,0.2051,0,0,nothing
-0.9354,0.2051,0,0,nothing
-0.9251,0.2051,0,0,nothing
-0.9149,0.2051,0,0,nothing
-0.9046,0.2051,0,0,nothing
-0.8944,0.2051,0,0,nothing
-0.8841,0.2051,0,0,nothing
-0.8739,0.2051,0,0,nothing
-0.8636,0.2051,0,0,nothing
-0.8508,0.2572,0,0,left_engine
-0.8362,0.2912,0,0,left_engine
-0.8216,0.2912,0,0,nothing
-0.8071,0.2912,0,0,nothing
-0.7925,0.2912,0,0,nothing
-0.7780,0.2912,0,0,nothing
-0.7634,0.2912,0,0,nothing
-0.7489,0.2912,0,0,nothing
-0.7343,0.2912,0,0,nothing
-0.7175,0.3367,0,0,left_engine
-0.6985,0.3784,0,0,left_engine
-0.6780,0.4114,0,0,left_engine
-0.6550,0.4601,0,0,left_engine
-0.6320,0.4601,0,0,nothing
-0.6090,0.4601,0,0,nothing
-0.5860,0.4600,0,0,nothing
-0.5630,0.4600,0,0,nothing
-0.5400,0.4600,0,0,nothing
-0.5170,0.4600,0,0,nothing
-0.4940,0.4600,0,0,nothing
-0.4735,0.4091,0,0,right_engine
-0.4547,0.3753,0,0,right_engine
-0.4377,0.3402,0,0,right_engine
-0.4229,0.2972,0,0,right_engine
-0.4080,0.2972,0,0,nothing
-0.3931,0.2972,0,0,nothing
-0.3783,0.2972,0,0,nothing
-0.3634,0.2972,0,0,nothing
-0.3505,0.2584,0,0,right_engine
-0.3394,0.2225,0,0,right_engine
-0.3299,0.1904,0,0,right_engine
-0.3222,0.1530,0,0,right_engine
-0.3162,0.1208,0,0,right_engine
-0.3125,0.0740,0,0,right_engine
-0.3109,0.0320,0,0,right_engine
-0.3111,-0.0038,0,0,right_engine
-0.3134,-0.0461,0,0,right_engine
-0.3182,-0.0960,0,0,right_engine
-0.3253,-0.1436,0,0,right_engine
-0.3325,-0.1436,0,0,nothing
-0.3397,-0.1436,0,0,nothing
-0.3493,-0.1926,0,0,right_engine
-0.3613,-0.2398,0,0,right_engine
-0.3755,-0.2841,0,0,right_engine
-0.3914,-0.3181,0,0,right_engine
-0.4095,-0.3614,0,0,right_engine
-0.4300,-0.4094,0,0,right_engine
-0.4523,-0.4471,0,0,right_engine
-0.4770,-0.4935,0,0,right_engine
-0.5040,-0.5399,0,0,right_engine
-0.5333,-0.5861,0,0,right_engine
-0.5644,-0.6226,0,0,right_engine
-0.5975,-0.6610,0,0,right_engine
-0.6323,-0.6966,0,0,right_engine
-0.6671,-0.6965,0,0,nothing
-0.7020,-0.6965,0,0,nothing
-0.7368,-0.6964,0,0,nothing
-0.7710,-0.6848,0,0,main_engine
-0.8052,-0.6833,0,0,main_engine
-0.8388,-0.6723,0,0,main_engine
-0.8716,-0.6564,0,0,main_engine
-0.9041,-0.6498,0,0,main_engine
-0.9358,-0.6343,0,0,main_engine
-0.9667,-0.6175,0,0,main_engine
-0.9978,-0.6226,0,0,main_engine
-1.0284,-0.6108,0,0,main_engine
-1.0595,-0.6236,0,0,main_engine
-1.0906,-0.6217,0,0,main_engine
-1.1211,-0.6091,0,0,main_engine
-1.1519,-0.6164,0,0,main_engine
-1.1836,-0.6331,0,0,main_engine
-1.2158,-0.6449,0,0,main_engine
-1.2478,-0.6407,0,0,main_engine
-1.2803,-0.6496,0,0,main_engine
-1.3128,-0.6496,0,0,nothing
-1.3427,-0.5985,0,0,left_engine
-1.3707,-0.5587,0,0,left_engine
-1.3961,-0.5094,0,0,left_engine
-1.4189,-0.4549,0,0,left_engine
-1.4386,-0.3938,0,0,left_engine
-1.4553,-0.3345,0,0,left_engine
-1.4694,-0.2825,0,0,left_engine
-1.4811,-0.2326,0,0,left_engine
-1.4901,-0.1802,0,0,left_engine
-1.4971,-0.1411,0,0,left_engine
-1.5013,-0.0830,0,0,left_engine
-1.5027,-0.0288,0,0,left_engine
-1.5013,0.0288,0,0,left_engine
-1.4975,0.0744,0,0,left_engine
-1.4915,0.1214,0,0,left_engine
-1.4824,0.1822,0,0,left_engine
-1.4701,0.2447,0,0,left_engine
-1.4550,0.3027,0,0,left_engine
-1.4374,0.3522,0,0,left_engine
-1.4198,0.3522,0,0,nothing
-1.3993,0.4098,0,0,left_engine
-1.3763,0.4600,0,0,left_engine
-1.3533,0.4600,0,0,nothing
-1.3303,0.4599,0,0,nothing
-1.3073,0.4599,0,0,nothing
-1.2843,0.4599,0,0,nothing
-1.2613,0.4599,0,0,nothing
-1.2383,0.4599,0,0,nothing
-1.2153,0.4599,0,0,nothing
-1.1923,0.4598,0,0,nothing
-1.1693,0.4598,0,0,nothing
-1.1464,0.4598,0,0,nothing
-1.1234,0.4598,0,0,nothing
-1.1004,0.4598,0,0,nothing
-1.0774,0.4598,0,0,nothing
-1.0544,0.4597,0,0,nothing
-1.0314,0.4597,0,0,nothing
-1.0084,0.4597,0,0,nothing
-0.9854,0.4597,0,0,nothing
-0.9625,0.4597,0,0,nothing
-0.9395,0.4597,0,0,nothing
-0.9165,0.4596,0,0,nothing
-0.8935,0.4596,0,0,nothing
-0.8705,0.4596,0,0,nothing
-0.8476,0.4596,0,0,nothing
-0.8246,0.4596,0,0,nothing
-0.8016,0.4596,0,0,nothing
-0.7786,0.4595,0,0,nothing
-0.7556,0.4595,0,0,nothing
-0.7327,0.4595,0,0,nothing
-0.7097,0.4595,0,0,nothing
-0.6867,0.4595,0,0,nothing
-0.6637,0.4595,0,0,nothing
-0.6408,0.4594,0,0,nothing
-0.6178,0.4594,0,0,nothing
-0.5948,0.4594,0,0,nothing
-0.5719,0.4594,0,0,nothing
-0.5489,0.4594,0,0,nothing
-0.5259,0.4594,0,0,nothing
-0.5030,0.4593,0,0,nothing
-0.4800,0.4593,0,0,nothing
-0.4570,0.4593,0,0,nothing
-0.4341,0.4593,0,0,nothing
-0.4111,0.4593,0,0,nothing
-0.3881,0.4593,0,0,nothing
-0.3652,0.4592,0,0,nothing
-0.3422,0.4592,0,0,nothing
-0.3193,0.4592,0,0,nothing
-0.2963,0.4592,0,0,nothing
-0.2733,0.4592,0,0,nothing
-0.2504,0.4592,0,0,nothing
-0.2274,0.4591,0,0,nothing
-0.2062,0.4252,0,0,right_engine
-0.1865,0.3932,0,0,right_engine
-0.1693,0.3443,0,0,right_engine
-0.1542,0.3018,0,0,right_engine
-0.1415,0.2545,0,0,right_engine
-0.1287,0.2545,0,0,nothing
-0.1160,0.2545,0,0,nothing
-0.1033,0.2545,0,0,nothing
-0.0906,0.2545,0,0,nothing
-0.0795,0.2213,0,0,right_engine
-0.0705,0.1803,0,0,right_engine
-0.0632,0.1455,0,0,right_engine
-0.0582,0.1011,0,0,right_engine
-0.0531,0.1011,0,0,nothing
-0.0481,0.1011,0,0,nothing
-0.0430,0.1011,0,0,nothing
-0.0379,0.1011,0,0,nothing
-0.0329,0.1011,0,0,nothing
-0.0278,0.1011,0,0,nothing
-0.0228,0.1011,0,0,nothing
-0.0177,0.1011,0,0,nothing
-0.0127,0.1011,0,0,nothing
-0.0076,0.1011,0,0,nothing
-0.0026,0.1011,0,0,nothing
0.0025,0.1011,0,0,nothing
0.0075,0.1011,0,0,nothing
0.0126,0.1011,0,0,nothing
0.0177,0.1011,0,0,nothing
0.0227,0.1011,0,0,nothing
0.0278,0.1011,0,0,nothing
0.0328,0.1011,0,0,nothing
0.0379,0.1011,0,0,nothing
0.0429,0.1011,0,0,nothing
0.0480,0.1011,0,0,nothing
0.0530,0.1011,0,0,nothing
0.0581,0.1011,0,0,nothing
0.0632,0.1011,0,0,nothing
0.0682,0.1011,0,0,nothing
0.0733,0.1011,0,0,nothing
0.0783,0.1011,0,0,nothing
0.0834,0.1011,0,0,nothing
0.0884,0.1011,0,0,nothing
0.0935,0.1011,0,0,nothing
0.0985,0.1011,0,0,nothing
0.1036,0.1011,0,0,nothing
0.1086,0.1011,0,0,nothing
0.1137,0.1011,0,0,nothing
0.1188,0.1011,0,0,nothing
0.1238,0.1011,0,0,nothing
0.1289,0.1011,0,0,nothing
0.1152,-0.2729,0,1,nothing
0.0825,-0.6536,0,1,nothing
0.0324,-1.0027,0,1,left_engine
-0.0319,-1.2850,1,1,left_engine
-0.0876,-1.1131,1,1,left_engine
-0.1321,-0.8897,1,1,left_engine
-0.1665,-0.6885,1,1,left_engine
-0.1919,-0.5072,1,1,left_engine
-0.2109,-0.3807,1,1,left_engine
-0.2243,-0.2686,1,1,left_engine
-0.2199,0.0549,1,1,left_engine
-0.0169,-0.1673,0,0,nothing
-0.0253,-0.1672,0,0,nothing
-0.0336,-0.1672,0,0,nothing
-0.0420,-0.1672,0,0,nothing
-0.0503,-0.1672,0,0,nothing
-0.0587,-0.1671,0,0,nothing
-0.0671,-0.1671,0,0,nothing
-0.0754,-0.1671,0,0,nothing
-0.0838,-0.1671,0,0,nothing
-0.0921,-0.1670,0,0,nothing
-0.1005,-0.1670,0,0,nothing
-0.1088,-0.1670,0,0,nothing
-0.1172,-0.1670,0,0,nothing
-0.1255,-0.1669,0,0,nothing
-0.1339,-0.1669,0,0,nothing
-0.1422,-0.1669,0,0,nothing
-0.1505,-0.1668,0,0,nothing
-0.1589,-0.1668,0,0,nothing
-0.1672,-0.1668,0,0,nothing
-0.1756,-0.1668,0,0,nothing
-0.1839,-0.1667,0,0,nothing
-0.1922,-0.1667,0,0,nothing
-0.2006,-0.1667,0,0,nothing
-0.2089,-0.1667,0,0,nothing
-0.2176,-0.1747,0,0,nothing
-0.2260,-0.1666,0,0,nothing
-0.2343,-0.1666,0,0,nothing
-0.2426,-0.1666,0,0,nothing
-0.2510,-0.1666,0,0,nothing
-0.2593,-0.1666,0,0,nothing
-0.2676,-0.1666,0,0,nothing
-0.2759,-0.1666,0,0,nothing
-0.2843,-0.1666,0,0,nothing
-0.2926,-0.1666,0,0,nothing
-0.3009,-0.1666,0,0,nothing
-0.3093,-0.1666,0,0,nothing
-0.3176,-0.1666,0,0,nothing
-0.3259,-0.1666,0,0,nothing
-0.3343,-0.1666,0,0,nothing
-0.3426,-0.1666,0,0,nothing
-0.3509,-0.1666,0,0,nothing
-0.3593,-0.1666,0,0,nothing
-0.3676,-0.1666,0,0,nothing
-0.3759,-0.1666,0,0,nothing
-0.3843,-0.1666,0,0,nothing
-0.3926,-0.1666,0,0,nothing
-0.4009,-0.1666,0,0,nothing
-0.4092,-0.1666,0,0,nothing
-0.4176,-0.1666,0,0,nothing
-0.4259,-0.1666,0,0,nothing
-0.4342,-0.1666,0,0,nothing
-0.4426,-0.1666,0,0,nothing
-0.4509,-0.1666,0,0,nothing
-0.4592,-0.1666,0,0,nothing
-0.4676,-0.1666,0,0,nothing
-0.4759,-0.1666,0,0,nothing
-0.4842,-0.1666,0,0,nothing
-0.4926,-0.1666,0,0,nothing
-0.5009,-0.1666,0,0,nothing
-0.5092,-0.1666,0,0,nothing
-0.5175,-0.1666,0,0,nothing
-0.5259,-0.1666,0,0,nothing
-0.5342,-0.1666,0,0,nothing
-0.5425,-0.1666,0,0,nothing
-0.5509,-0.1666,0,0,nothing
-0.5592,-0.1666,0,0,nothing
-0.5675,-0.1666,0,0,nothing
-0.5759,-0.1666,0,0,nothing
-0.5842,-0.1666,0,0,nothing
-0.5925,-0.1666,0,0,nothing
-0.6009,-0.1666,0,0,nothing
-0.6092,-0.1666,0,0,nothing
-0.6175,-0.1666,0,0,nothing
-0.6258,-0.1666,0,0,nothing
-0.6342,-0.1666,0,0,nothing
-0.6425,-0.1666,0,0,nothing
-0.6508,-0.1666,0,0,nothing
-0.6592,-0.1666,0,0,nothing
-0.6675,-0.1666,0,0,nothing
-0.6758,-0.1666,0,0,nothing
-0.6842,-0.1666,0,0,nothing
-0.6925,-0.1666,0,0,nothing
-0.7008,-0.1666,0,0,nothing
-0.7091,-0.1666,0,0,nothing
-0.7175,-0.1666,0,0,nothing
-0.7258,-0.1666,0,0,nothing
-0.7341,-0.1666,0,0,nothing
-0.7425,-0.1666,0,0,nothing
-0.7508,-0.1666,0,0,nothing
-0.7591,-0.1666,0,0,nothing
-0.7674,-0.1666,0,0,nothing
-0.7758,-0.1666,0,0,nothing
-0.7841,-0.1666,0,0,nothing
-0.7924,-0.1666,0,0,nothing
-0.8008,-0.1666,0,0,nothing
-0.8091,-0.1666,0,0,nothing
-0.8174,-0.1666,0,0,nothing
-0.8258,-0.1666,0,0,nothing
-0.8341,-0.1666,0,0,nothing
-0.8424,-0.1666,0,0,nothing
-0.8507,-0.1666,0,0,nothing
-0.8591,-0.1666,0,0,nothing
-0.8674,-0.1666,0,0,nothing
-0.8757,-0.1666,0,0,nothing
-0.8841,-0.1666,0,0,nothing
-0.8924,-0.1666,0,0,nothing
-0.9007,-0.1666,0,0,nothing
-0.9090,-0.1666,0,0,nothing
-0.9174,-0.1666,0,0,nothing
-0.9257,-0.1666,0,0,nothing
-0.9340,-0.1666,0,0,nothing
-0.9424,-0.1666,0,0,nothing
-0.9507,-0.1666,0,0,nothing
-0.9590,-0.1666,0,0,nothing
-0.9673,-0.1666,0,0,nothing
-0.9757,-0.1666,0,0,nothing
-0.9840,-0.1666,0,0,nothing
-0.9923,-0.1666,0,0,nothing
-1.0007,-0.1666,0,0,nothing
-1.0090,-0.1666,0,0,nothing
-1.0173,-0.1666,0,0,nothing
-1.0256,-0.1666,0,0,nothing
-1.0340,-0.1666,0,0,nothing
-1.0423,-0.1666,0,0,nothing
-1.0506,-0.1666,0,0,nothing
-1.0589,-0.1666,0,0,nothing
-1.0673,-0.1666,0,0,nothing
-1.0756,-0.1666,0,0,nothing
-1.0839,-0.1666,0,0,nothing
-1.0923,-0.1666,0,0,nothing
-1.1006,-0.1666,0,0,nothing
-1.1089,-0.1666,0,0,nothing
-1.1172,-0.1666,0,0,nothing
-1.1256,-0.1666,0,0,nothing
-1.1339,-0.1666,0,0,nothing
0.0000,-0.0000,0,0,nothing
0.0000,-0.0000,0,0,nothing
0.0000,-0.0000,0,0,nothing
0.0000,-0.0000,0,0,nothing
0.0000,-0.0000,0,0,nothing
0.0000,-0.0000,0,0,nothing
0.0000,-0.0000,0,0,nothing
-0.0000,-0.0000,0,0,nothing
-0.0000,-0.0000,0,0,nothing
-0.0000,-0.0000,0,0,nothing
-0.0000,-0.0000,0,0,nothing
-0.0000,-0.0000,0,0,nothing
-0.0000,-0.0000,0,0,nothing
-0.0000,-0.0000,0,0,nothing
-0.0000,-0.0000,0,0,nothing
-0.0000,-0.0000,0,0,nothing
-0.0000,-0.0000,0,0,nothing
-0.0000,-0.0000,0,0,nothing
-0.0000,-0.0000,0,0,nothing
-0.0000,-0.0000,0,0,nothing
-0.0000,-0.0000,0,0,nothing
-0.0000,-0.0000,0,0,nothing
-0.0000,-0.0000,0,0,nothing
-0.0000,-0.0000,0,0,nothing
-0.0000,-0.0000,0,0,nothing
-0.0000,-0.0000,0,0,nothing
-0.0000,-0.0000,0,0,nothing
-0.0000,-0.0000,0,0,nothing
-0.0000,-0.0000,0,0,nothing
-0.0000,-0.0000,0,0,nothing
-0.0000,-0.0000,0,0,nothing
-0.0000,-0.0000,0,0,nothing
-0.0000,-0.0000,0,0,nothing
-0.0000,-0.0000,0,0,nothing
-0.0000,-0.0000,0,0,nothing
-0.0000,-0.0000,0,0,nothing
-0.0000,-0.0000,0,0,nothing
-0.0000,-0.0000,0,0,nothing
-0.0000,-0.0000,0,0,nothing
-0.0000,-0.0000,0,0,nothing
-0.0000,-0.0000,0,0,nothing
-0.0000,-0.0000,0,0,nothing
-0.0000,-0.0000,0,0,nothing
-0.0000,-0.0000,0,0,nothing
-0.0000,-0.0000,0,0,nothing
-0.0000,-0.0000,0,0,nothing
-0.0000,-0.0000,0,0,nothing
-0.0000,-0.0000,0,0,nothing
-0.0000,-0.0000,0,0,nothing
-0.0000,-0.0000,0,0,nothing
-0.0000,-0.0000,0,0,nothing
-0.0000,-0.0000,0,0,nothing
-0.0000,-0.0000,0,0,nothing
-0.0000,-0.0000,0,0,nothing
-0.0000,-0.0000,0,0,nothing
-0.0000,-0.0000,0,0,nothing
-0.0000,-0.0000,0,0,nothing
-0.0000,-0.0000,0,0,nothing
-0.0000,-0.0000,0,0,nothing
-0.0000,-0.0000,0,0,nothing
-0.0000,-0.0000,0,0,nothing
-0.0000,-0.0000,0,0,nothing
-0.0000,-0.0000,0,0,nothing
-0.0000,-0.0000,0,0,nothing
-0.0000,-0.0000,0,0,nothing
-0.0000,-0.0000,0,0,nothing
-0.0000,-0.0000,0,0,nothing
-0.0000,-0.0000,0,0,nothing
-0.0000,-0.0000,0,0,nothing
-0.0000,-0.0000,0,0,nothing
-0.0000,-0.0000,0,0,nothing
-0.0000,-0.0000,0,0,nothing
-0.0001,-0.0000,0,0,nothing
-0.0001,-0.0000,0,0,nothing
-0.0001,-0.0000,0,0,nothing
-0.0001,-0.0000,0,0,nothing
-0.0001,-0.0000,0,0,nothing
-0.0001,-0.0000,0,0,nothing
-0.0001,-0.0000,0,0,nothing
-0.0001,-0.0000,0,0,nothing
-0.0001,-0.0000,0,0,nothing
-0.0001,-0.0000,0,0,nothing
-0.0001,-0.0000,0,0,nothing
-0.0001,-0.0000,0,0,nothing
-0.0001,-0.0000,0,0,nothing
-0.0001,-0.0000,0,0,nothing
-0.0001,-0.0000,0,0,nothing
-0.0001,-0.0000,0,0,nothing
-0.0001,-0.0000,0,0,nothing
-0.0001,-0.0000,0,0,nothing
-0.0001,-0.0000,0,0,nothing
-0.0001,-0.0000,0,0,nothing
-0.0001,-0.0000,0,0,nothing
-0.0001,-0.0000,0,0,nothing
-0.0001,-0.0000,0,0,nothing
-0.0001,-0.0000,0,0,nothing
-0.0001,-0.0000,0,0,nothing
-0.0001,-0.0000,0,0,nothing
-0.0001,-0.0000,0,0,nothing
-0.0001,-0.0000,0,0,nothing
-0.0001,-0.0000,0,0,nothing
-0.0001,-0.0000,0,0,nothing
-0.0001,-0.0000,0,0,nothing
-0.0001,-0.0000,0,0,nothing
-0.0001,-0.0000,0,0,nothing
-0.0001,-0.0000,0,0,nothing
-0.0001,-0.0000,0,0,nothing
-0.0001,-0.0000,0,0,nothing
-0.0001,-0.0000,0,0,nothing
-0.0001,-0.0000,0,0,nothing
-0.0001,-0.0000,0,0,nothing
-0.0001,-0.0000,0,0,nothing
-0.0001,-0.0000,0,0,nothing
-0.0001,-0.0000,0,0,nothing
-0.0001,-0.0000,0,0,nothing
-0.0001,-0.0000,0,0,nothing
-0.0001,-0.0000,0,0,nothing
-0.0001,-0.0000,0,0,nothing
-0.0001,-0.0000,0,0,nothing
-0.0001,-0.0000,0,0,nothing
-0.0001,-0.0000,0,0,nothing
-0.0001,-0.0000,0,0,nothing
-0.0001,-0.0000,0,0,nothing
-0.0001,-0.0000,0,0,nothing
-0.0001,-0.0000,0,0,nothing
-0.0001,-0.0000,0,0,nothing
-0.0001,-0.0000,0,0,nothing
-0.0001,-0.0000,0,0,nothing
-0.0001,-0.0000,0,0,nothing
-0.0001,-0.0000,0,0,nothing
-0.0001,-0.0000,0,0,nothing
-0.0001,-0.0000,0,0,nothing
-0.0001,-0.0000,0,0,nothing
-0.0001,-0.0000,0,0,nothing
-0.0001,-0.0000,0,0,nothing
-0.0001,-0.0000,0,0,nothing
-0.0001,-0.0000,0,0,nothing
-0.0001,-0.0000,0,0,nothing
-0.0001,-0.0000,0,0,nothing
-0.0001,-0.0000,0,0,nothing
-0.0001,-0.0000,0,0,nothing
-0.0001,-0.0000,0,0,nothing
-0.0001,-0.0000,0,0,nothing
-0.0001,-0.0000,0,0,nothing
-0.0001,-0.0000,0,0,nothing
-0.0001,-0.0000,0,0,nothing
-0.0001,-0.0000,0,0,nothing
-0.0001,-0.0000,0,0,nothing
-0.0001,-0.0000,0,0,nothing
-0.0001,-0.0000,0,0,nothing
-0.0001,-0.0000,0,0,nothing
-0.0001,-0.0000,0,0,nothing
-0.0001,-0.0000,0,0,nothing
-0.0001,-0.0000,0,0,nothing
-0.0001,-0.0000,0,0,nothing
-0.0001,-0.0000,0,0,nothing
-0.0001,-0.0000,0,0,nothing
-0.0001,-0.0000,0,0,nothing
-0.0001,-0.0000,0,0,nothing
-0.0001,-0.0000,0,0,nothing
-0.0001,-0.0000,0,0,nothing
-0.0001,-0.0000,0,0,nothing
-0.0001,-0.0000,0,0,nothing
-0.0001,-0.0000,0,0,nothing
-0.0001,-0.0000,0,0,nothing
-0.0001,-0.0000,0,0,nothing
-0.0001,-0.0000,0,0,nothing
-0.0001,-0.0000,0,0,nothing
-0.0001,-0.0000,0,0,nothing
-0.0001,-0.0000,0,0,nothing
-0.0001,-0.0000,0,0,nothing
-0.0001,-0.0000,0,0,nothing
-0.0001,-0.0000,0,0,nothing
-0.0001,-0.0000,0,0,nothing
-0.0001,-0.0000,0,0,nothing
-0.0001,-0.0000,0,0,nothing
-0.0001,-0.0000,0,0,nothing
-0.0001,-0.0000,0,0,nothing
-0.0001,-0.0000,0,0,nothing
-0.0001,-0.0000,0,0,nothing
-0.0001,-0.0000,0,0,nothing
-0.0001,-0.0000,0,0,nothing
-0.0001,-0.0000,0,0,nothing
-0.0001,-0.0000,0,0,nothing
0.0003,0.0083,0,0,main_engine
0.0007,0.0087,0,0,main_engine
0.0016,0.0182,0,0,main_engine
0.0031,0.0285,0,0,main_engine
0.0045,0.0285,0,0,nothing
0.0059,0.0285,0,0,nothing
0.0073,0.0285,0,0,nothing
0.0088,0.0285,0,0,nothing
0.0102,0.0285,0,0,nothing
0.0116,0.0285,0,0,nothing
0.0130,0.0285,0,0,nothing
0.0145,0.0285,0,0,nothing
0.0159,0.0285,0,0,nothing
0.0173,0.0285,0,0,nothing
0.0188,0.0285,0,0,nothing
0.0202,0.0285,0,0,nothing
0.0224,0.0445,0,0,main_engine
0.0249,0.0505,0,0,main_engine
0.0267,0.0364,0,0,main_engine
0.0281,0.0280,0,0,main_engine
0.0289,0.0151,0,0,main_engine
0.0296,0.0140,0,0,main_engine
0.0302,0.0114,0,0,main_engine
0.0302,0.0003,0,0,main_engine
0.0299,-0.0047,0,0,main_engine
0.0294,-0.0106,0,0,main_engine
0.0289,-0.0106,0,0,nothing
0.0284,-0.0106,0,0,nothing
0.0278,-0.0106,0,0,nothing
0.0273,-0.0106,0,0,nothing
0.0268,-0.0106,0,0,nothing
0.0262,-0.0106,0,0,nothing
0.0257,-0.0106,0,0,nothing
0.0252,-0.0106,0,0,nothing
0.0247,-0.0106,0,0,nothing
0.0241,-0.0106,0,0,nothing
0.0236,-0.0106,0,0,nothing
0.0231,-0.0106,0,0,nothing
0.0225,-0.0106,0,0,nothing
0.0220,-0.0106,0,0,nothing
0.0215,-0.0106,0,0,nothing
0.0209,-0.0106,0,0,nothing
0.0204,-0.0106,0,0,nothing
0.0199,-0.0106,0,0,nothing
0.0194,-0.0106,0,0,nothing
0.0188,-0.0106,0,0,nothing
0.0183,-0.0106,0,0,nothing
0.0178,-0.0106,0,0,nothing
0.0172,-0.0106,0,0,nothing
0.0167,-0.0106,0,0,nothing
0.0162,-0.0106,0,0,nothing
0.0157,-0.0106,0,0,nothing
0.0151,-0.0106,0,0,nothing
0.0146,-0.0106,0,0,nothing
0.0141,-0.0106,0,0,nothing
0.0135,-0.0106,0,0,nothing
0.0130,-0.0106,0,0,nothing
0.0125,-0.0106,0,0,nothing
0.0119,-0.0106,0,0,nothing
0.0114,-0.0106,0,0,nothing
0.0109,-0.0106,0,0,nothing
0.0104,-0.0106,0,0,nothing
0.0098,-0.0106,0,0,nothing
0.0093,-0.0106,0,0,nothing
0.0088,-0.0106,0,0,nothing
0.0082,-0.0106,0,0,nothing
0.0077,-0.0106,0,0,nothing
0.0072,-0.0106,0,0,nothing
0.0067,-0.0106,0,0,nothing
0.0061,-0.0106,0,0,nothing
0.0056,-0.0106,0,0,nothing
0.0051,-0.0106,0,0,nothing
0.0045,-0.0106,0,0,nothing
0.0040,-0.0106,0,0,nothing
0.0035,-0.0106,0,0,nothing
0.0029,-0.0106,0,0,nothing
0.0024,-0.0106,0,0,nothing
0.0019,-0.0106,0,0,nothing
0.0014,-0.0106,0,0,nothing
0.0008,-0.0106,0,0,nothing
0.0003,-0.0106,0,0,nothing
-0.0002,-0.0106,0,0,nothing
-0.0008,-0.0106,0,0,nothing
-0.0013,-0.0106,0,0,nothing
-0.0018,-0.0106,0,0,nothing
-0.0023,-0.0106,0,0,nothing
-0.0029,-0.0106,0,0,nothing
-0.0034,-0.0106,0,0,nothing
-0.0039,-0.0106,0,0,nothing
-0.0045,-0.0106,0,0,nothing
-0.0050,-0.0106,0,0,nothing
-0.0055,-0.0106,0,0,nothing
-0.0061,-0.0106,0,0,nothing
-0.0066,-0.0106,0,0,nothing
-0.0071,-0.0106,0,0,nothing
-0.0075,-0.0071,0,0,main_engine
-0.0082,-0.0154,0,0,main_engine
-0.0090,-0.0154,0,0,main_engine
-0.0098,-0.0154,0,0,nothing
-0.0105,-0.0154,0,0,nothing
-0.0113,-0.0154,0,0,nothing
-0.0121,-0.0154,0,0,nothing
-0.0128,-0.0154,0,0,nothing
-0.0136,-0.0154,0,0,nothing
-0.0144,-0.0154,0,0,nothing
-0.0152,-0.0154,0,0,nothing
-0.0159,-0.0154,0,0,nothing
-0.0166,-0.0143,0,0,main_engine
-0.0172,-0.0119,0,0,main_engine
-0.0184,-0.0243,0,0,main_engine
-0.0197,-0.0243,0,0,nothing
-0.0209,-0.0243,0,0,nothing
-0.0221,-0.0243,0,0,nothing
-0.0233,-0.0243,0,0,nothing
-0.0245,-0.0243,0,0,nothing
-0.0257,-0.0243,0,0,nothing
-0.0270,-0.0243,0,0,nothing
-0.0282,-0.0243,0,0,nothing
-0.0294,-0.0243,0,0,nothing
-0.0306,-0.0243,0,0,nothing
-0.0318,-0.0243,0,0,nothing
-0.0330,-0.0243,0,0,nothing
-0.0343,-0.0243,0,0,nothing
-0.0355,-0.0243,0,0,nothing
-0.0367,-0.0255,0,0,main_engine
-0.0380,-0.0255,0,0,nothing
-0.0393,-0.0255,0,0,nothing
-0.0406,-0.0255,0,0,nothing
-0.0418,-0.0255,0,0,nothing
-0.0431,-0.0255,0,0,nothing
-0.0444,-0.0255,0,0,nothing
-0.0457,-0.0255,0,0,nothing
-0.0469,-0.0255,0,0,nothing
-0.0482,-0.0255,0,0,nothing
-0.0495,-0.0255,0,0,nothing
-0.0508,-0.0255,0,0,nothing
-0.0520,-0.0255,0,0,nothing
-0.0533,-0.0255,0,0,nothing
-0.0546,-0.0255,0,0,nothing
-0.0559,-0.0255,0,0,nothing
-0.0571,-0.0255,0,0,nothing
-0.0584,-0.0255,0,0,nothing
-0.0597,-0.0255,0,0,nothing
-0.0610,-0.0255,0,0,nothing
-0.0622,-0.0255,0,0,nothing
-0.0635,-0.0255,0,0,nothing
-0.0648,-0.0255,0,0,nothing
-0.0661,-0.0255,0,0,nothing
-0.0678,-0.0351,0,0,main_engine
-0.0696,-0.0351,0,0,nothing
-0.0713,-0.0351,0,0,nothing
-0.0731,-0.0351,0,0,nothing
-0.0748,-0.0351,0,0,nothing
-0.0766,-0.0351,0,0,nothing
-0.0783,-0.0351,0,0,nothing
-0.0801,-0.0351,0,0,nothing
-0.0819,-0.0351,0,0,nothing
-0.0837,-0.0378,0,0,main_engine
-0.0860,-0.0449,0,0,main_engine
-0.0876,-0.0321,0,0,main_engine
-0.0900,-0.0477,0,0,main_engine
-0.0924,-0.0477,0,0,nothing
-0.0947,-0.0477,0,0,nothing
-0.0971,-0.0477,0,0,nothing
-0.0995,-0.0477,0,0,nothing
-0.1019,-0.0477,0,0,nothing
-0.1043,-0.0477,0,0,nothing
-0.1067,-0.0477,0,0,nothing
-0.1090,-0.0477,0,0,nothing
-0.1114,-0.0477,0,0,nothing
-0.1138,-0.0477,0,0,nothing
-0.1162,-0.0477,0,0,nothing
-0.1186,-0.0477,0,0,nothing
-0.1210,-0.0477,0,0,nothing
-0.1233,-0.0477,0,0,nothing
-0.1257,-0.0477,0,0,nothing
-0.1281,-0.0477,0,0,nothing
-0.1305,-0.0477,0,0,nothing
-0.1329,-0.0477,0,0,nothing
-0.1353,-0.0477,0,0,nothing
-0.1376,-0.0477,0,0,nothing
-0.1400,-0.0477,0,0,nothing
-0.1424,-0.0477,0,0,nothing
-0.1448,-0.0477,0,0,nothing
-0.1472,-0.0477,0,0,nothing
-0.1496,-0.0477,0,0,nothing
-0.1519,-0.0477,0,0,nothing
-0.1543,-0.0477,0,0,nothing
-0.1567,-0.0477,0,0,nothing
-0.1591,-0.0477,0,0,nothing
-0.1615,-0.0477,0,0,nothing
-0.1639,-0.0477,0,0,nothing
-0.1663,-0.0477,0,0,nothing
-0.1686,-0.0477,0,0,nothing
-0.1705,-0.0382,0,0,main_engine
-0.1726,-0.0407,0,0,main_engine
-0.1746,-0.0407,0,0,main_engine
-0.1767,-0.0407,0,0,nothing
-0.1787,-0.0407,0,0,nothing
-0.1807,-0.0407,0,0,nothing
-0.1828,-0.0407,0,0,nothing
-0.1848,-0.0407,0,0,nothing
-0.1868,-0.0407,0,0,nothing
-0.1889,-0.0407,0,0,nothing
-0.1909,-0.0407,0,0,nothing
-0.1930,-0.0407,0,0,nothing
-0.1950,-0.0407,0,0,nothing
-0.1970,-0.0407,0,0,nothing
-0.1991,-0.0407,0,0,nothing
-0.2011,-0.0407,0,0,nothing
-0.2031,-0.0407,0,0,nothing
-0.2052,-0.0407,0,0,nothing
-0.2072,-0.0407,0,0,nothing
-0.2092,-0.0407,0,0,nothing
-0.2113,-0.0407,0,0,nothing
-0.2133,-0.0407,0,0,nothing
-0.2154,-0.0407,0,0,nothing
-0.2174,-0.0407,0,0,nothing
-0.2014,0.3196,1,0,nothing
-0.1810,0.4084,1,0,nothing
-0.1560,0.5006,1,0,nothing
-0.1279,0.5619,1,0,nothing
-0.1005,0.5485,1,0,nothing
-0.0731,0.5485,0,0,nothing
-0.0456,0.5485,0,0,nothing
-0.0182,0.5484,0,0,nothing
0.0092,0.5484,0,0,nothing
0.0366,0.5484,0,1,nothing
0.0486,0.2382,0,1,nothing
0.0418,-0.1364,0,1,nothing
0.0196,-0.4432,0,1,nothing
0.0047,-0.2978,1,1,nothing
-0.0015,-0.1249,1,1,nothing
-0.0005,0.0198,1,1,nothing
0.0029,0.0686,1,1,nothing
0.0003,-0.0510,1,1,nothing
-0.0012,-0.0302,0,1,nothing
-0.0027,-0.0302,0,0,nothing
-0.0042,-0.0302,0,0,nothing
-0.0057,-0.0302,0,0,nothing
-0.0072,-0.0302,0,0,nothing
-0.0087,-0.0302,0,0,nothing
-0.0102,-0.0302,0,0,nothing
-0.0118,-0.0302,0,0,nothing
-0.0133,-0.0302,0,0,nothing
-0.0148,-0.0302,0,0,nothing
-0.0163,-0.0302,0,0,nothing
-0.0178,-0.0302,0,0,nothing
-0.0193,-0.0302,0,0,nothing
-0.0208,-0.0302,0,0,nothing
-0.0223,-0.0302,0,0,nothing
-0.0238,-0.0302,0,0,nothing
-0.0254,-0.0302,0,0,nothing
-0.0269,-0.0302,0,0,nothing
-0.0284,-0.0302,0,0,nothing
-0.0299,-0.0302,0,0,nothing
-0.0314,-0.0302,0,0,nothing
-0.0329,-0.0302,0,0,nothing
-0.0344,-0.0302,0,0,nothing
-0.0359,-0.0302,0,0,nothing
-0.0375,-0.0302,0,0,nothing
-0.0390,-0.0302,0,0,nothing
-0.0405,-0.0302,0,0,nothing
-0.0420,-0.0302,0,0,nothing
-0.0435,-0.0302,0,0,nothing
-0.0450,-0.0302,0,0,nothing
-0.0370,0.1608,1,0,nothing
-0.0284,0.1718,1,0,nothing
-0.0193,0.1826,1,0,nothing
-0.0096,0.1934,1,0,nothing
0.0006,0.2039,1,0,nothing
0.0037,0.0610,1,1,nothing
0.0006,-0.0619,1,1,nothing
-0.0017,-0.0468,1,1,nothing
-0.0035,-0.0346,1,1,nothing
-0.0046,-0.0228,1,0,nothing
-0.0052,-0.0110,1,0,nothing
-0.0051,0.0008,1,0,nothing
-0.0045,0.0125,1,0,nothing
-0.0033,0.0243,1,0,nothing
-0.0033,-0.0000,1,1,nothing
-0.0033,0.0000,1,1,nothing
-0.0033,0.0000,1,1,nothing
-0.0033,-0.0000,1,1,nothing
-0.0033,-0.0000,1,1,nothing
-0.0033,-0.0000,1,1,nothing
-0.0033,-0.0000,1,1,nothing
-0.0033,0.0000,1,1,nothing
-0.0033,0.0000,1,1,nothing
-0.0033,0.0001,1,1,nothing
-0.0033,0.0000,1,1,nothing
-0.0033,0.0000,1,1,nothing
-0.0033,-0.0000,1,1,nothing
-0.0033,-0.0000,1,1,nothing
-0.0033,-0.0000,1,1,nothing
-0.0033,0.0000,1,1,nothing
-0.0033,0.0000,1,1,nothing
-0.0033,0.0000,1,1,nothing
-0.0033,-0.0000,1,1,nothing
-0.0033,-0.0000,1,1,nothing
-0.0033,-0.0000,1,1,nothing
-0.0033,0.0000,1,1,nothing
-0.0033,0.0000,1,1,nothing
-0.0033,0.0000,1,1,nothing
-0.0033,0.0000,1,1,nothing
-0.0033,-0.0000,1,1,nothing
-0.0033,-0.0000,1,1,nothing
-0.0033,-0.0000,1,1,nothing
-0.0033,0.0000,1,1,nothing
-0.0033,0.0000,1,1,nothing
-0.0033,0.0000,1,1,nothing
-0.0066,-0.0656,0,0,nothing
-0.0099,-0.0656,0,0,nothing
-0.0132,-0.0656,0,0,nothing
-0.0165,-0.0656,0,0,nothing
-0.0197,-0.0655,0,0,nothing
-0.0230,-0.0655,0,0,nothing
-0.0263,-0.0655,0,0,nothing
-0.0296,-0.0655,0,0,nothing
-0.0328,-0.0655,0,0,nothing
-0.0361,-0.0655,0,0,nothing
-0.0394,-0.0655,0,0,nothing
-0.0427,-0.0655,0,0,nothing
-0.0459,-0.0655,0,0,nothing
-0.0492,-0.0655,0,0,nothing
-0.0525,-0.0654,0,0,nothing
-0.0558,-0.0654,0,0,nothing
-0.0590,-0.0654,0,0,nothing
-0.0623,-0.0654,0,0,nothing
-0.0656,-0.0654,0,0,nothing
-0.0688,-0.0654,0,0,nothing
-0.0721,-0.0654,0,0,nothing
-0.0754,-0.0654,0,0,nothing
-0.0786,-0.0654,0,0,nothing
-0.0819,-0.0654,0,0,nothing
-0.0852,-0.0654,0,0,nothing
-0.0884,-0.0654,0,0,nothing
-0.0917,-0.0654,0,0,nothing
-0.0950,-0.0654,0,0,nothing
-0.0982,-0.0654,0,0,nothing
-0.1015,-0.0654,0,0,nothing
-0.1048,-0.0654,0,0,nothing
-0.1081,-0.0654,0,0,nothing
-0.1113,-0.0654,0,0,nothing
-0.1146,-0.0654,0,0,nothing
-0.1179,-0.0654,0,0,nothing
-0.1232,-0.1070,0,0,right_engine
-0.1308,-0.1527,0,0,right_engine
-0.1401,-0.1861,0,0,right_engine
-0.1511,-0.2191,0,0,right_engine
-0.1642,-0.2617,0,0,right_engine
-0.1788,-0.2933,0,0,right_engine
-0.1958,-0.3400,0,0,right_engine
-0.2150,-0.3837,0,0,right_engine
-0.2366,-0.4319,0,0,right_engine
-0.2606,-0.4792,0,0,right_engine
-0.2863,-0.5133,0,0,right_engine
-0.3139,-0.5534,0,0,right_engine
-0.3436,-0.5941,0,0,right_engine
-0.3733,-0.5941,0,0,nothing
-0.4030,-0.5940,0,0,nothing
-0.4327,-0.5940,0,0,nothing
-0.4624,-0.5940,0,0,nothing
-0.4921,-0.5939,0,0,nothing
-0.5218,-0.5939,0,0,nothing
-0.5508,-0.5799,0,0,main_engine
-0.5792,-0.5684,0,0,main_engine
-0.6082,-0.5787,0,0,main_engine
-0.6373,-0.5835,0,0,main_engine
-0.6665,-0.5835,0,0,main_engine
-0.6963,-0.5948,0,0,main_engine
-0.7252,-0.5781,0,0,main_engine
-0.7535,-0.5670,0,0,main_engine
-0.7821,-0.5709,0,0,main_engine
-0.8102,-0.5621,0,0,main_engine
-0.8380,-0.5572,0,0,main_engine
-0.8655,-0.5491,0,0,main_engine
-0.8936,-0.5630,0,0,main_engine
-0.9211,-0.5490,0,0,main_engine
-0.9485,-0.5490,0,0,nothing
-0.9740,-0.5089,0,0,left_engine
-0.9970,-0.4605,0,0,left_engine
-1.0182,-0.4233,0,0,left_engine
-1.0371,-0.3790,0,0,left_engine
-1.0532,-0.3216,0,0,left_engine
-1.0672,-0.2794,0,0,left_engine
-1.0792,-0.2407,0,0,left_engine
-1.0889,-0.1950,0,0,left_engine
-1.0966,-0.1523,0,0,left_engine
-1.1019,-0.1062,0,0,left_engine
-1.1048,-0.0594,0,0,left_engine
-1.1059,-0.0208,0,0,left_engine
-1.1048,0.0223,0,0,left_engine
-1.1012,0.0708,0,0,left_engine
-1.0951,0.1227,0,0,left_engine
-1.0871,0.1593,0,0,left_engine
-1.0767,0.2092,0,0,left_engine
-1.0636,0.2605,0,0,left_engine
-1.0487,0.2982,0,0,left_engine
-1.0320,0.3354,0,0,left_engine
-1.0132,0.3762,0,0,left_engine
-0.9925,0.4131,0,0,left_engine
-0.9694,0.4626,0,0,left_engine
-0.9439,0.5097,0,0,left_engine
-0.9163,0.5510,0,0,left_engine
-0.8867,0.5935,0,0,left_engine
-0.8552,0.6294,0,0,left_engine
-0.8237,0.6293,0,0,nothing
-0.7904,0.6664,0,0,left_engine
-0.7554,0.7008,0,0,left_engine
-0.7184,0.7392,0,0,left_engine
-0.6792,0.7833,0,0,left_engine
-0.6377,0.8312,0,0,left_engine
-0.5941,0.8721,0,0,left_engine
-0.5479,0.9234,0,0,left_engine
-0.4991,0.9752,0,0,left_engine
-0.4487,1.0084,0,0,left_engine
-0.3965,1.0448,0,0,left_engine
-0.3419,1.0913,0,0,left_engine
-0.2849,1.1400,0,0,left_engine
-0.2259,1.1802,0,0,left_engine
-0.1650,1.2180,0,0,left_engine
-0.1041,1.2177,0,0,nothing
-0.0433,1.2174,0,0,nothing
0.0176,1.2171,0,0,nothing
0.0784,1.2168,0,0,nothing
0.1393,1.2165,0,0,nothing
0.2001,1.2162,0,0,nothing
0.2609,1.2159,0,0,nothing
0.3222,1.2263,0,0,main_engine
0.3836,1.2284,0,0,main_engine
0.4454,1.2359,0,0,main_engine
0.5074,1.2408,0,0,main_engine
0.5694,1.2390,0,0,main_engine
0.6316,1.2443,0,0,main_engine
0.6936,1.2410,0,0,main_engine
0.7559,1.2447,0,0,main_engine
0.8176,1.2351,0,0,main_engine
0.8801,1.2496,0,0,main_engine
0.9419,1.2361,0,0,main_engine
1.0030,1.2211,0,0,main_engine
1.0633,1.2071,0,0,main_engine
1.1237,1.2068,0,0,nothing
1.1840,1.2065,0,0,nothing
1.2443,1.2062,0,0,nothing
1.3046,1.2059,0,0,nothing
1.3649,1.2056,0,0,nothing
1.4251,1.2053,0,0,nothing
1.4854,1.2050,0,0,nothing
1.5456,1.2046,0,0,nothing
1.6058,1.2043,0,0,nothing
1.6660,1.2040,0,0,nothing
1.7241,1.1610,0,0,right_engine
1.7792,1.1023,0,0,right_engine
1.8319,1.0550,0,0,right_engine
1.8818,0.9978,0,0,right_engine
1.9296,0.9553,0,0,right_engine
1.9747,0.9017,0,0,right_engine
2.0171,0.8479,0,0,right_engine
2.0572,0.8026,0,0,right_engine
2.0954,0.7639,0,0,right_engine
2.1318,0.7278,0,0,right_engine
2.1662,0.6880,0,0,right_engine
2.1985,0.6456,0,0,right_engine
2.2286,0.6019,0,0,right_engine
2.2567,0.5635,0,0,right_engine
2.2828,0.5209,0,0,right_engine
2.3063,0.4700,0,0,right_engine
2.3276,0.4256,0,0,right_engine
2.3466,0.3814,0,0,right_engine
2.3639,0.3460,0,0,right_engine
2.3796,0.3122,0,0,right_engine
2.3934,0.2772,0,0,right_engine
2.4073,0.2772,0,0,nothing
2.4211,0.2772,0,0,nothing
2.4328,0.2340,0,0,right_engine
2.4429,0.2003,0,0,right_engine
2.4508,0.1586,0,0,right_engine
2.4560,0.1043,0,0,right_engine
2.4593,0.0654,0,0,right_engine
2.4606,0.0258,0,0,right_engine
2.4593,-0.0248,0,0,right_engine
2.4562,-0.0621,0,0,right_engine
2.4509,-0.1065,0,0,right_engine
2.4438,-0.1423,0,0,right_engine
2.4349,-0.1774,0,0,right_engine
2.4237,-0.2240,0,0,right_engine
2.4106,-0.2615,0,0,right_engine
2.3956,-0.3007,0,0,right_engine
2.3788,-0.3358,0,0,right_engine
2.3595,-0.3871,0,0,right_engine
2.3375,-0.4389,0,0,right_engine
2.3130,-0.4896,0,0,right_engine
2.2864,-0.5318,0,0,right_engine
2.2581,-0.5670,0,0,right_engine
2.2297,-0.5670,0,0,nothing
2.2014,-0.5669,0,0,nothing
2.1731,-0.5669,0,0,nothing
2.1447,-0.5669,0,0,nothing
2.1164,-0.5668,0,0,nothing
2.0880,-0.5668,0,0,nothing
2.0597,-0.5668,0,0,nothing
2.0314,-0.5667,0,0,nothing
2.0030,-0.5667,0,0,nothing
1.9722,-0.6168,0,0,right_engine
1.9388,-0.6670,0,0,right_engine
1.9026,-0.7245,0,0,right_engine
1.8635,-0.7825,0,0,right_engine
1.8244,-0.7824,0,0,nothing
1.7852,-0.7824,0,0,nothing
1.7461,-0.7823,0,0,nothing
1.7070,-0.7822,0,0,nothing
1.6683,-0.7754,0,0,main_engine
1.6300,-0.7653,0,0,main_engine
1.5909,-0.7812,0,0,main_engine
1.5524,-0.7697,0,0,main_engine
1.5138,-0.7726,0,0,main_engine
1.4755,-0.7664,0,0,main_engine
1.4365,-0.7792,0,0,main_engine
1.3976,-0.7783,0,0,main_engine
1.3587,-0.7782,0,0,nothing
1.3198,-0.7781,0,0,nothing
1.2809,-0.7780,0,0,nothing
1.2420,-0.7779,0,0,nothing
1.2031,-0.7778,0,0,nothing
1.1635,-0.7921,0,0,main_engine
1.1234,-0.8015,0,0,main_engine
1.0837,-0.7949,0,0,main_engine
1.0438,-0.7969,0,0,main_engine
1.0032,-0.8122,0,0,main_engine
0.9626,-0.8121,0,0,nothing
0.9220,-0.8120,0,0,nothing
0.8814,-0.8120,0,0,nothing
0.8408,-0.8119,0,0,nothing
0.8002,-0.8118,0,0,nothing
0.7597,-0.8117,0,0,nothing
0.7191,-0.8116,0,0,nothing
0.6785,-0.8115,0,0,nothing
0.6379,-0.8114,0,0,nothing
0.5974,-0.8113,0,0,nothing
0.5568,-0.8112,0,0,nothing
0.5163,-0.8111,0,0,nothing
0.4757,-0.8110,0,0,nothing
0.4352,-0.8109,0,0,nothing
0.3946,-0.8108,0,0,nothing
0.3541,-0.8108,0,0,nothing
0.3135,-0.8107,0,0,nothing
0.2730,-0.8106,0,0,nothing
0.2325,-0.8105,0,0,nothing
0.1920,-0.8104,0,0,nothing
0.1515,-0.8103,0,0,nothing
0.1110,-0.8102,0,0,nothing
0.0720,-0.7799,0,0,left_engine
0.0353,-0.7321,0,0,left_engine
0.0010,-0.6876,0,0,left_engine
-0.0334,-0.6876,0,0,nothing
-0.0678,-0.6875,0,0,nothing
-0.1022,-0.6875,0,0,nothing
-0.1365,-0.6874,0,0,nothing
-0.1709,-0.6874,0,0,nothing
-0.2053,-0.6873,0,0,nothing
-0.2396,-0.6873,0,0,nothing
-0.2717,-0.6422,0,0,left_engine
-0.3019,-0.6034,0,0,left_engine
-0.3300,-0.5621,0,0,left_engine
-0.3581,-0.5620,0,0,nothing
-0.3862,-0.5620,0,0,nothing
-0.4143,-0.5620,0,0,nothing
-0.4446,-0.6053,0,0,right_engine
-0.4771,-0.6513,0,0,right_engine
-0.5122,-0.7020,0,0,right_engine
-0.5495,-0.7447,0,0,right_engine
-0.5867,-0.7446,0,0,nothing
-0.6239,-0.7445,0,0,nothing
-0.6612,-0.7445,0,0,nothing
-0.7006,-0.7881,0,0,right_engine
-0.7417,-0.8235,0,0,right_engine
-0.7847,-0.8586,0,0,right_engine
-0.8299,-0.9043,0,0,right_engine
-0.8770,-0.9420,0,0,right_engine
-0.9261,-0.9824,0,0,right_engine
-0.9772,-1.0222,0,0,right_engine
-1.0302,-1.0592,0,0,right_engine
-1.0853,-1.1019,0,0,right_engine
-1.1428,-1.1505,0,0,right_engine
-1.2026,-1.1969,0,0,right_engine
-1.2654,-1.2548,0,0,right_engine
-1.3281,-1.2545,0,0,nothing
-1.3908,-1.2541,0,0,nothing
-1.4535,-1.2538,0,0,nothing
-1.5162,-1.2535,0,0,nothing
-1.5767,-1.2111,0,0,left_engine
-1.6346,-1.1575,0,0,left_engine
-1.6906,-1.1194,0,0,left_engine
-1.7436,-1.0594,0,0,left_engine
-1.7945,-1.0190,0,0,left_engine
-1.8423,-0.9566,0,0,left_engine
-1.8883,-0.9189,0,0,left_engine
-1.9323,-0.8796,0,0,left_engine
-1.9739,-0.8336,0,0,left_engine
-2.0136,-0.7928,0,0,left_engine
-2.0507,-0.7422,0,0,left_engine
-2.0852,-0.6893,0,0,left_engine
-2.1175,-0.6473,0,0,left_engine
-2.1470,-0.5887,0,0,left_engine
-2.1742,-0.5454,0,0,left_engine
-2.1986,-0.4873,0,0,left_engine
-2.2211,-0.4507,0,0,left_engine
-2.2416,-0.4099,0,0,left_engine
-2.2602,-0.3712,0,0,left_engine
-2.2769,-0.3349,0,0,left_engine
-2.2915,-0.2912,0,0,left_engine
-2.3034,-0.2377,0,0,left_engine
-2.3132,-0.1963,0,0,left_engine
-2.3203,-0.1425,0,0,left_engine
-2.3250,-0.0946,0,0,left_engine
-2.3275,-0.0498,0,0,left_engine
-2.3277,-0.0033,0,0,left_engine
-2.3257,0.0390,0,0,left_engine
-2.3210,0.0949,0,0,left_engine
-2.3135,0.1499,0,0,left_engine
-2.3038,0.1933,0,0,left_engine
-2.2921,0.2345,0,0,left_engine
-2.2783,0.2756,0,0,left_engine
-2.2617,0.3320,0,0,left_engine
-2.2426,0.3829,0,0,left_engine
-2.2216,0.4194,0,0,left_engine
-2.1982,0.4674,0,0,left_engine
-2.1728,0.5091,0,0,left_engine
-2.1451,0.5532,0,0,left_engine
-2.1146,0.6105,0,0,left_engine
-2.0823,0.6462,0,0,left_engine
-2.0478,0.6908,0,0,left_engine
-2.0106,0.7430,0,0,left_engine
-1.9707,0.7991,0,0,left_engine
-1.9288,0.8377,0,0,left_engine
-1.8841,0.8940,0,0,left_engine
-1.8367,0.9480,0,0,left_engine
-1.7893,0.9479,0,0,nothing
-1.7419,0.9477,0,0,nothing
-1.6945,0.9476,0,0,nothing
-1.6471,0.9474,0,0,nothing
-1.5998,0.9473,0,0,nothing
-1.5524,0.9471,0,0,nothing
-1.5051,0.9470,0,0,nothing
-1.4577,0.9468,0,0,nothing
-1.4104,0.9467,0,0,nothing
-1.3628,0.9518,0,0,main_engine
-1.3149,0.9577,0,0,main_engine
-1.2675,0.9491,0,0,main_engine
-1.2206,0.9376,0,0,main_engine
-1.1731,0.9502,0,0,main_engine
-1.1259,0.9424,0,0,main_engine
-1.0791,0.9364,0,0,main_engine
-1.0323,0.9363,0,0,nothing
-0.9855,0.9361,0,0,nothing
-0.9387,0.9360,0,0,nothing
-0.8920,0.9341,0,0,main_engine
-0.8446,0.9480,0,0,main_engine
-0.7976,0.9404,0,0,main_engine
-0.7506,0.9402,0,0,nothing
-0.7036,0.9401,0,0,nothing
-0.6566,0.9399,0,0,nothing
-0.6096,0.9398,0,0,nothing
-0.5626,0.9397,0,0,nothing
-0.5156,0.9395,0,0,nothing
-0.4687,0.9394,0,0,nothing
-0.4217,0.9392,0,0,nothing
-0.3747,0.9391,0,0,nothing
-0.3278,0.9389,0,0,nothing
-0.2809,0.9388,0,0,nothing
-0.2339,0.9387,0,0,nothing
-0.1870,0.9385,0,0,nothing
-0.1401,0.9384,0,0,nothing
-0.0932,0.9382,0,0,nothing
-0.0463,0.9381,0,0,nothing
0.0006,0.9379,0,0,nothing
0.0475,0.9378,0,0,nothing
0.0922,0.8935,0,0,right_engine
0.1345,0.8462,0,0,right_engine
0.1749,0.8086,0,0,right_engine
0.2136,0.7739,0,0,right_engine
0.2507,0.7415,0,0,right_engine
0.2855,0.6961,0,0,right_engine
0.3185,0.6605,0,0,right_engine
0.3516,0.6605,0,0,nothing
0.3846,0.6604,0,0,nothing
0.4176,0.6604,0,0,nothing
0.4486,0.6193,0,0,right_engine
0.4778,0.5855,0,0,right_engine
0.5052,0.5465,0,0,right_engine
0.5299,0.4944,0,0,right_engine
0.5527,0.4559,0,0,right_engine
0.5732,0.4112,0,0,right_engine
0.5913,0.3617,0,0,right_engine
0.6094,0.3617,0,0,nothing
0.6275,0.3617,0,0,nothing
0.6456,0.3617,0,0,nothing
0.6637,0.3617,0,0,nothing
0.6817,0.3617,0,0,nothing
0.6998,0.3617,0,0,nothing
0.7179,0.3617,0,0,nothing
0.7360,0.3617,0,0,nothing
0.7541,0.3617,0,0,nothing
0.7722,0.3616,0,0,nothing
0.7902,0.3616,0,0,nothing
0.8083,0.3616,0,0,nothing
0.8264,0.3616,0,0,nothing
0.8445,0.3616,0,0,nothing
0.8626,0.3616,0,0,nothing
0.8806,0.3616,0,0,nothing
0.8987,0.3616,0,1,nothing
0.9403,0.7867,0,1,nothing
0.9880,0.9144,0,1,nothing
1.0349,0.9138,0,1,nothing
1.0809,0.9134,0,1,nothing
1.1266,0.9135,0,1,nothing
1.1723,0.9134,0,0,nothing
1.2179,0.9133,0,0,nothing
1.2636,0.9131,0,0,nothing
1.3092,0.9130,0,0,nothing
1.3549,0.9129,0,0,nothing
1.4005,0.9127,0,0,nothing
1.4492,0.9747,0,0,left_engine
1.5011,1.0367,0,0,left_engine
1.5560,1.0988,0,0,left_engine
1.6133,1.1467,0,0,left_engine
1.6732,1.1972,0,0,left_engine
1.7351,1.2392,0,0,left_engine
1.7999,1.2967,0,0,left_engine
1.8672,1.3457,0,0,left_engine
1.9137,0.7251,0,0,left_engine
0.0168,0.1660,0,0,nothing
0.0251,0.1659,0,0,nothing
0.0334,0.1659,0,0,nothing
0.0417,0.1658,0,0,nothing
0.0500,0.1658,0,0,nothing
0.0582,0.1658,0,0,nothing
0.0665,0.1657,0,0,nothing
0.0748,0.1657,0,0,nothing
0.0831,0.1657,0,0,nothing
0.0914,0.1657,0,0,nothing
0.0997,0.1656,0,0,nothing
0.1079,0.1656,0,0,nothing
0.1162,0.1656,0,0,nothing
0.1245,0.1656,0,0,nothing
0.1328,0.1655,0,0,nothing
0.1410,0.1655,0,0,nothing
0.1493,0.1655,0,0,nothing
0.1576,0.1655,0,0,nothing
0.1659,0.1654,0,0,nothing
0.1741,0.1654,0,0,nothing
0.1824,0.1654,0,0,nothing
0.1907,0.1654,0,0,nothing
0.1989,0.1653,0,0,nothing
0.2072,0.1653,0,0,nothing
0.2159,0.1733,0,0,nothing
0.2241,0.1653,0,0,nothing
0.2324,0.1653,0,0,nothing
0.2407,0.1653,0,0,nothing
0.2489,0.1653,0,0,nothing
0.2572,0.1653,0,0,nothing
0.2654,0.1653,0,0,nothing
0.2737,0.1653,0,0,nothing
0.2820,0.1653,0,0,nothing
-0.0047,-0.0466,0,0,nothing
-0.0070,-0.0466,0,0,nothing
-0.0094,-0.0466,0,0,nothing
-0.0117,-0.0466,0,0,nothing
-0.0140,-0.0466,0,0,nothing
-0.0163,-0.0466,0,0,nothing
-0.0187,-0.0466,0,0,nothing
-0.0210,-0.0465,0,0,nothing
-0.0233,-0.0465,0,0,nothing
-0.0257,-0.0465,0,0,nothing
-0.0280,-0.0465,0,0,nothing
-0.0303,-0.0465,0,0,nothing
-0.0326,-0.0465,0,0,nothing
-0.0350,-0.0465,0,0,nothing
-0.0373,-0.0465,0,0,nothing
-0.0396,-0.0465,0,0,nothing
-0.0419,-0.0465,0,0,nothing
-0.0443,-0.0465,0,0,nothing
-0.0466,-0.0465,0,0,nothing
-0.0489,-0.0465,0,0,nothing
-0.0512,-0.0465,0,0,nothing
-0.0535,-0.0465,0,0,nothing
-0.0559,-0.0464,0,0,nothing
-0.0582,-0.0464,0,0,nothing
-0.0605,-0.0464,0,0,nothing
-0.0628,-0.0464,0,0,nothing
-0.0652,-0.0472,0,0,main_engine
-0.0675,-0.0453,0,0,main_engine
-0.0701,-0.0526,0,0,main_engine
-0.0722,-0.0423,0,0,main_engine
-0.0741,-0.0370,0,0,main_engine
-0.0763,-0.0446,0,0,main_engine
-0.0793,-0.0604,0,0,main_engine
-0.0828,-0.0708,0,0,main_engine
-0.0864,-0.0708,0,0,nothing
-0.0899,-0.0708,0,0,nothing
-0.0934,-0.0708,0,0,nothing
-0.0970,-0.0708,0,0,nothing
-0.1005,-0.0708,0,0,nothing
-0.1041,-0.0708,0,0,nothing
-0.1076,-0.0708,0,0,nothing
-0.1111,-0.0708,0,0,nothing
-0.1147,-0.0708,0,0,nothing
-0.1182,-0.0708,0,0,nothing
-0.1218,-0.0708,0,0,nothing
-0.1253,-0.0708,0,0,nothing
-0.1288,-0.0708,0,0,nothing
-0.1324,-0.0708,0,0,nothing
-0.1359,-0.0708,0,0,nothing
-0.1394,-0.0708,0,0,nothing
-0.1430,-0.0708,0,0,nothing
-0.1465,-0.0708,0,0,nothing
-0.1501,-0.0708,0,0,nothing
-0.1536,-0.0708,0,0,nothing
-0.1571,-0.0708,0,0,nothing
-0.1607,-0.0708,0,0,nothing
-0.1639,-0.0646,0,0,main_engine
-0.1679,-0.0803,0,0,main_engine
-0.1727,-0.0956,0,0,main_engine
-0.1767,-0.0806,0,0,main_engine
-0.1803,-0.0721,0,0,main_engine
-0.1841,-0.0759,0,0,main_engine
-0.1879,-0.0759,0,0,nothing
-0.1917,-0.0759,0,0,nothing
-0.1955,-0.0759,0,0,nothing
-0.1993,-0.0759,0,0,nothing
-0.2031,-0.0759,0,0,nothing
-0.2069,-0.0759,0,0,nothing
-0.2107,-0.0759,0,0,nothing
-0.2145,-0.0759,0,0,nothing
-0.2183,-0.0759,0,0,nothing
-0.2221,-0.0759,0,0,nothing
-0.2259,-0.0759,0,0,nothing
-0.2297,-0.0759,0,0,nothing
-0.2335,-0.0759,0,0,nothing
-0.2373,-0.0759,0,0,nothing
-0.2410,-0.0755,0,0,main_engine
-0.2444,-0.0671,0,0,main_engine
-0.2483,-0.0784,0,0,main_engine
-0.2522,-0.0770,0,0,main_engine
-0.2555,-0.0665,0,0,main_engine
-0.2588,-0.0665,0,0,nothing
-0.2621,-0.0665,0,0,nothing
-0.2655,-0.0665,0,0,nothing
-0.2688,-0.0665,0,0,nothing
-0.2721,-0.0665,0,0,nothing
-0.2754,-0.0665,0,0,nothing
-0.2788,-0.0665,0,0,nothing
-0.2821,-0.0665,0,0,nothing
-0.2836,-0.0292,0,0,left_engine
-0.2826,0.0181,0,0,left_engine
-0.2796,0.0618,0,0,left_engine
-0.2741,0.1091,0,0,left_engine
-0.2662,0.1574,0,0,left_engine
-0.2584,0.1574,0,0,nothing
-0.2505,0.1574,0,0,nothing
-0.2426,0.1574,0,0,nothing
-0.2348,0.1574,0,0,nothing
-0.2269,0.1574,0,0,nothing
-0.2190,0.1574,0,0,nothing
-0.2111,0.1574,0,0,nothing
-0.2033,0.1574,0,0,nothing
-0.1954,0.1574,0,0,nothing
-0.1853,0.2021,0,0,left_engine
-0.1732,0.2420,0,0,left_engine
-0.1595,0.2734,0,0,left_engine
-0.1442,0.3067,0,0,left_engine
-0.1289,0.3067,0,0,nothing
-0.1135,0.3067,0,0,nothing
-0.0982,0.3067,0,0,nothing
-0.0829,0.3067,0,0,nothing
-0.0675,0.3067,0,0,nothing
-0.0522,0.3067,0,0,nothing
-0.0348,0.3482,0,0,left_engine
-0.0153,0.3903,0,0,left_engine
0.0059,0.4226,0,0,left_engine
0.0286,0.4549,0,0,left_engine
0.0529,0.4862,0,0,left_engine
0.0772,0.4862,0,0,nothing
0.1016,0.4862,0,0,nothing
0.1259,0.4862,0,0,nothing
0.1502,0.4861,0,0,nothing
0.1745,0.4861,0,0,nothing
0.1988,0.4861,0,0,nothing
0.2231,0.4861,0,0,nothing
0.2474,0.4861,0,0,nothing
0.2717,0.4860,0,0,nothing
0.2960,0.4860,0,0,nothing
0.3210,0.4997,0,0,main_engine
0.3458,0.4964,0,0,main_engine
0.3707,0.4990,0,0,main_engine
0.3956,0.4973,0,0,main_engine
0.4205,0.4973,0,0,nothing
0.4453,0.4972,0,0,nothing
0.4702,0.4972,0,0,nothing
0.4951,0.4972,0,0,nothing
0.5201,0.5005,0,0,main_engine
0.5452,0.5022,0,0,main_engine
0.5703,0.5022,0,0,main_engine
0.5954,0.5022,0,0,nothing
0.6205,0.5022,0,0,nothing
0.6456,0.5022,0,0,nothing
0.6707,0.5022,0,0,nothing
0.6958,0.5021,0,0,nothing
0.7209,0.5021,0,0,nothing
0.7461,0.5021,0,0,nothing
0.7712,0.5021,0,0,nothing
0.7963,0.5020,0,0,nothing
0.8214,0.5020,0,0,nothing
0.8465,0.5020,0,0,nothing
0.8716,0.5020,0,0,nothing
0.8967,0.5020,0,0,nothing
0.9213,0.4920,0,0,main_engine
0.9452,0.4780,0,0,main_engine
0.9685,0.4669,0,0,main_engine
0.9926,0.4812,0,0,main_engine
1.0169,0.4871,0,0,main_engine
1.0413,0.4871,0,0,nothing
1.0656,0.4871,0,0,nothing
1.0900,0.4870,0,0,nothing
1.1143,0.4870,0,0,nothing
1.1387,0.4870,0,0,nothing
1.1630,0.4870,0,0,nothing
1.1874,0.4870,0,0,nothing
1.2117,0.4869,0,0,nothing
1.2361,0.4869,0,0,nothing
1.2604,0.4869,0,0,nothing
1.2847,0.4869,0,0,nothing
1.3062,0.4299,0,0,right_engine
1.3251,0.3769,0,0,right_engine
1.3410,0.3174,0,0,right_engine
1.3568,0.3174,0,0,nothing
1.3706,0.2746,0,0,right_engine
1.3822,0.2331,0,0,right_engine
1.3910,0.1758,0,0,right_engine
1.3970,0.1194,0,0,right_engine
1.4029,0.1194,0,0,nothing
1.4089,0.1194,0,0,nothing
1.4149,0.1194,0,0,nothing
1.4209,0.1194,0,0,nothing
1.4268,0.1194,0,0,nothing
1.4328,0.1194,0,0,nothing
1.4388,0.1194,0,0,nothing
1.4447,0.1194,0,0,nothing
1.4507,0.1194,0,0,nothing
1.4567,0.1194,0,0,nothing
1.4627,0.1194,0,0,nothing
1.4686,0.1194,0,0,nothing
1.4746,0.1194,0,0,nothing
1.4806,0.1194,0,0,nothing
1.4865,0.1194,0,0,nothing
1.4925,0.1194,0,0,nothing
1.4985,0.1194,0,0,nothing
1.5045,0.1194,0,0,nothing
1.5104,0.1194,0,0,nothing
1.5139,0.0698,0,0,right_engine
1.5145,0.0105,0,0,right_engine
1.5126,-0.0364,0,0,right_engine
1.5083,-0.0859,0,0,right_engine
1.5021,-0.1248,0,0,right_engine
1.4934,-0.1735,0,0,right_engine
1.4816,-0.2356,0,0,right_engine
1.4679,-0.2754,0,0,right_engine
1.4516,-0.3261,0,0,right_engine
1.4331,-0.3685,0,0,right_engine
1.4126,-0.4118,0,0,right_engine
1.3896,-0.4591,0,0,right_engine
1.3636,-0.5206,0,0,right_engine
1.3349,-0.5729,0,0,right_engine
1.3063,-0.5729,0,0,nothing
1.2776,-0.5728,0,0,nothing
1.2490,-0.5728,0,0,nothing
1.2204,-0.5728,0,0,nothing
1.1917,-0.5727,0,0,nothing
1.1631,-0.5727,0,0,nothing
1.1345,-0.5727,0,0,nothing
1.1058,-0.5726,0,0,nothing
1.0772,-0.5726,0,0,nothing
1.0486,-0.5726,0,0,nothing
1.0199,-0.5725,0,0,nothing
0.9913,-0.5725,0,0,nothing
0.9627,-0.5725,0,0,nothing
0.9341,-0.5724,0,0,nothing
0.9055,-0.5724,0,0,nothing
0.8768,-0.5724,0,0,nothing
0.8482,-0.5723,0,0,nothing
0.8196,-0.5723,0,0,nothing
0.7910,-0.5723,0,0,nothing
0.7624,-0.5722,0,0,nothing
0.7338,-0.5722,0,0,nothing
0.7052,-0.5722,0,0,nothing
0.6766,-0.5721,0,0,nothing
0.6479,-0.5721,0,0,nothing
0.6193,-0.5721,0,0,nothing
0.5907,-0.5720,0,0,nothing
0.5621,-0.5720,0,0,nothing
0.5335,-0.5720,0,0,nothing
0.5049,-0.5720,0,0,nothing
0.4788,-0.5227,0,0,left_engine
0.4544,-0.4874,0,0,left_engine
0.4325,-0.4387,0,0,left_engine
0.4106,-0.4387,0,0,nothing
0.3886,-0.4386,0,0,nothing
0.3667,-0.4386,0,0,nothing
0.3448,-0.4386,0,0,nothing
0.3229,-0.4386,0,0,nothing
0.3009,-0.4386,0,0,nothing
0.2790,-0.4386,0,0,nothing
0.2571,-0.4386,0,0,nothing
0.2351,-0.4385,0,0,nothing
0.2132,-0.4385,0,0,nothing
0.1913,-0.4385,0,0,nothing
0.1694,-0.4385,0,0,nothing
0.1474,-0.4385,0,0,nothing
0.1255,-0.4385,0,0,nothing
0.1036,-0.4384,0,0,nothing
0.0817,-0.4384,0,0,nothing
0.0598,-0.4384,0,0,nothing
0.0378,-0.4384,0,0,nothing
0.0159,-0.4384,0,0,nothing
-0.0060,-0.4384,0,0,nothing
-0.0279,-0.4384,0,0,nothing
-0.0498,-0.4383,0,0,nothing
-0.0718,-0.4383,0,0,nothing
-0.0937,-0.4383,0,0,nothing
-0.1156,-0.4383,0,0,nothing
-0.1375,-0.4383,0,0,nothing
-0.1594,-0.4383,0,0,nothing
-0.1813,-0.4383,0,0,nothing
-0.2032,-0.4382,0,0,nothing
-0.2252,-0.4382,0,0,nothing
-0.2471,-0.4382,0,0,nothing
-0.2690,-0.4382,0,0,nothing
-0.2903,-0.4255,0,0,main_engine
-0.3119,-0.4329,0,0,main_engine
-0.3332,-0.4255,0,0,main_engine
-0.3539,-0.4149,0,0,main_engine
-0.3747,-0.4149,0,0,nothing
-0.3954,-0.4149,0,0,nothing
-0.4162,-0.4149,0,0,nothing
-0.4369,-0.4149,0,0,nothing
-0.4576,-0.4149,0,0,nothing
-0.4784,-0.4149,0,0,nothing
-0.4991,-0.4148,0,0,nothing
-0.5199,-0.4148,0,0,nothing
-0.5406,-0.4148,0,0,nothing
-0.5614,-0.4148,0,0,nothing
-0.5821,-0.4148,0,0,nothing
-0.6028,-0.4148,0,0,nothing
-0.6236,-0.4148,0,0,nothing
-0.6451,-0.4315,0,0,main_engine
-0.6660,-0.4174,0,0,main_engine
-0.6867,-0.4139,0,0,main_engine
-0.7072,-0.4094,0,0,main_engine
-0.7276,-0.4077,0,0,main_engine
-0.7479,-0.4077,0,0,nothing
-0.7683,-0.4077,0,0,nothing
-0.7887,-0.4077,0,0,nothing
-0.8091,-0.4077,0,0,nothing
-0.8295,-0.4077,0,0,nothing
-0.8499,-0.4076,0,0,nothing
-0.8678,-0.3580,0,0,left_engine
-0.8834,-0.3119,0,0,left_engine
-0.8965,-0.2624,0,0,left_engine
-0.9069,-0.2087,0,0,left_engine
-0.9173,-0.2087,0,0,nothing
-0.9278,-0.2087,0,0,nothing
-0.9382,-0.2087,0,0,nothing
-0.9486,-0.2087,0,0,nothing
-0.9591,-0.2087,0,0,nothing
-0.9675,-0.1676,0,0,left_engine
-0.9740,-0.1305,0,0,left_engine
-0.9786,-0.0921,0,0,left_engine
-0.9832,-0.0921,0,0,nothing
-0.9878,-0.0921,0,0,nothing
-0.9924,-0.0921,0,0,nothing
-0.9970,-0.0921,0,0,nothing
-1.0016,-0.0921,0,0,nothing
-1.0062,-0.0921,0,0,nothing
-1.0108,-0.0921,0,0,nothing
-1.0154,-0.0921,0,0,nothing
-1.0200,-0.0921,0,0,nothing
-1.0247,-0.0921,0,0,nothing
-1.0293,-0.0921,0,0,nothing
-1.0339,-0.0921,0,0,nothing
-1.0385,-0.0921,0,0,nothing
-1.0431,-0.0921,0,0,nothing
-1.0477,-0.0921,0,0,nothing
-1.0523,-0.0921,0,0,nothing
-1.0569,-0.0921,0,0,nothing
-1.0615,-0.0921,0,0,nothing
-1.0661,-0.0921,0,0,nothing
-1.0707,-0.0921,0,0,nothing
-1.0753,-0.0921,0,0,nothing
-1.0799,-0.0921,0,0,nothing
-1.0845,-0.0921,0,0,nothing
-1.0891,-0.0921,0,0,nothing
-1.0918,-0.0541,0,0,left_engine
-1.0920,-0.0030,0,0,left_engine
-1.0902,0.0355,0,0,left_engine
-1.0884,0.0355,0,0,nothing
-1.0867,0.0355,0,0,nothing
-1.0849,0.0355,0,0,nothing
-1.0831,0.0355,0,0,nothing
-1.0813,0.0355,0,0,nothing
-1.0795,0.0355,0,0,nothing
-1.0778,0.0355,0,0,nothing
-1.0760,0.0355,0,0,nothing
-1.0720,0.0801,0,0,left_engine
-1.0653,0.1338,0,0,left_engine
-1.0563,0.1793,0,0,left_engine
-1.0455,0.2173,0,0,left_engine
-1.0320,0.2697,0,0,left_engine
-1.0185,0.2697,0,0,nothing
-1.0050,0.2697,0,0,nothing
-0.9915,0.2697,0,0,nothing
-0.9780,0.2696,0,0,nothing
-0.9646,0.2696,0,0,nothing
-0.9511,0.2696,0,0,nothing
-0.9376,0.2696,0,0,nothing
-0.9241,0.2696,0,0,nothing
-0.9106,0.2696,0,0,nothing
-0.8972,0.2696,0,0,nothing
-0.8837,0.2696,0,0,nothing
-0.8702,0.2696,0,0,nothing
-0.8567,0.2696,0,0,nothing
-0.8432,0.2696,0,0,nothing
-0.8298,0.2696,0,0,nothing
-0.8163,0.2696,0,0,nothing
-0.8005,0.3155,0,0,left_engine
-0.7847,0.3155,0,0,nothing
-0.7689,0.3155,0,0,nothing
-0.7532,0.3155,0,0,nothing
-0.7374,0.3155,0,0,nothing
-0.7216,0.3155,0,0,nothing
-0.7058,0.3155,0,0,nothing
-0.6901,0.3155,0,0,nothing
-0.6743,0.3155,0,0,nothing
-0.6585,0.3155,0,0,nothing
-0.6427,0.3155,0,0,nothing
-0.6270,0.3155,0,0,nothing
-0.6089,0.3605,0,0,left_engine
-0.5886,0.4068,0,0,left_engine
-0.5683,0.4068,0,0,nothing
-0.5479,0.4068,0,0,nothing
-0.5276,0.4068,0,0,nothing
-0.5073,0.4067,0,0,nothing
-0.4869,0.4067,0,0,nothing
-0.4666,0.4067,0,0,nothing
-0.4462,0.4067,0,0,nothing
-0.4259,0.4067,0,0,nothing
-0.4056,0.4067,0,0,nothing
-0.3852,0.4067,0,0,nothing
-0.3649,0.4067,0,0,nothing
-0.3446,0.4067,0,0,nothing
-0.3242,0.4066,0,0,nothing
-0.3039,0.4066,0,0,nothing
-0.2836,0.4066,0,0,nothing
-0.2632,0.4066,0,0,nothing
-0.2429,0.4066,0,0,nothing
-0.2226,0.4066,0,0,nothing
-0.2023,0.4066,0,0,nothing
-0.1819,0.4066,0,0,nothing
-0.1616,0.4065,0,0,nothing
-0.1413,0.4065,0,0,nothing
-0.1232,0.3626,0,0,right_engine
-0.1075,0.3136,0,0,right_engine
-0.0933,0.2831,0,0,right_engine
-0.0809,0.2480,0,0,right_engine
-0.0685,0.2480,0,0,nothing
-0.0561,0.2480,0,0,nothing
-0.0437,0.2480,0,0,nothing
-0.0313,0.2480,0,0,nothing
-0.0189,0.2480,0,0,nothing
-0.0087,0.2040,0,0,right_engine
-0.0004,0.1666,0,0,right_engine
0.0059,0.1264,0,0,right_engine
0.0123,0.1264,0,0,nothing
0.0186,0.1264,0,0,nothing
0.0249,0.1264,0,0,nothing
0.0312,0.1264,0,0,nothing
0.0375,0.1264,0,0,nothing
0.0439,0.1264,0,0,nothing
0.0502,0.1264,0,0,nothing
0.0565,0.1264,0,0,nothing
0.0628,0.1264,0,0,nothing
0.0691,0.1264,0,0,nothing
0.0755,0.1264,0,0,nothing
0.0818,0.1264,0,0,nothing
0.0881,0.1264,0,0,nothing
0.0944,0.1264,0,0,nothing
0.1015,0.1408,0,0,main_engine
0.1088,0.1456,0,0,main_engine
0.1155,0.1358,0,0,main_engine
0.1229,0.1472,0,0,main_engine
0.1303,0.1472,0,0,nothing
0.1376,0.1472,0,0,nothing
0.1447,0.1407,0,0,main_engine
0.1517,0.1408,0,0,main_engine
0.1595,0.1557,0,0,main_engine
0.1680,0.1701,0,0,main_engine
0.1758,0.1568,0,0,main_engine
0.1841,0.1648,0,0,main_engine
0.1923,0.1648,0,0,nothing
0.2005,0.1648,0,0,nothing
0.2088,0.1648,0,0,nothing
0.2170,0.1648,0,0,nothing
0.2253,0.1648,0,0,nothing
0.2335,0.1648,0,0,nothing
0.2418,0.1648,0,0,nothing
0.2500,0.1648,0,0,nothing
0.2582,0.1648,0,0,nothing
0.2665,0.1648,0,0,nothing
0.2747,0.1648,0,0,nothing
0.2830,0.1648,0,0,nothing
0.2912,0.1648,0,0,nothing
0.2994,0.1648,0,0,nothing
0.3054,0.1200,0,0,right_engine
0.3114,0.1200,0,0,nothing
0.3174,0.1200,0,0,nothing
0.3234,0.1200,0,0,nothing
0.3294,0.1200,0,0,nothing
0.3354,0.1200,0,0,nothing
0.3414,0.1200,0,0,nothing
0.3474,0.1200,0,0,nothing
0.3534,0.1200,0,0,nothing
0.3577,0.0858,0,0,right_engine
0.3604,0.0525,0,0,right_engine
0.3610,0.0131,0,0,right_engine
0.3600,-0.0205,0,0,right_engine
0.3590,-0.0205,0,0,nothing
0.3579,-0.0205,0,0,nothing
0.3569,-0.0205,0,0,nothing
0.3559,-0.0205,0,0,nothing
0.3549,-0.0205,0,0,nothing
0.3538,-0.0205,0,0,nothing
0.3528,-0.0205,0,0,nothing
0.3518,-0.0205,0,0,nothing
0.3507,-0.0205,0,0,nothing
0.3497,-0.0205,0,0,nothing
0.3487,-0.0205,0,0,nothing
0.3477,-0.0205,0,0,nothing
0.3466,-0.0205,0,0,nothing
0.3456,-0.0205,0,0,nothing
0.3446,-0.0205,0,0,nothing
0.3436,-0.0205,0,0,nothing
0.3425,-0.0205,0,1,nothing
0.3270,-0.3145,0,1,nothing
0.2934,-0.6713,0,1,nothing
0.2444,-0.9802,0,1,nothing
0.1868,-1.1525,0,1,nothing
0.1287,-1.1628,0,1,nothing
0.0719,-1.1350,0,1,nothing
0.0152,-1.1345,0,0,nothing
-0.0411,-1.1262,1,0,nothing
-0.0789,-0.7551,1,0,nothing
-0.0980,-0.3817,1,0,nothing
-0.0985,-0.0093,1,0,nothing
-0.0806,0.3568,1,0,nothing
-0.0511,0.5915,1,0,nothing
-0.0338,0.3456,1,1,nothing
-0.0282,0.1113,1,1,nothing
-0.0307,-0.0502,1,1,nothing
-0.0351,-0.0879,1,1,nothing
-0.0316,0.0696,1,1,nothing
-0.0265,0.1037,1,1,nothing
-0.0219,0.0912,1,0,nothing
-0.0174,0.0908,0,0,nothing
-0.0128,0.0908,0,0,nothing
-0.0083,0.0908,0,0,nothing
-0.0037,0.0908,0,0,nothing
0.0008,0.0908,0,0,nothing
0.0053,0.0908,0,0,nothing
0.0095,0.0828,0,0,nothing
0.0136,0.0828,0,0,nothing
0.0178,0.0828,0,0,nothing
0.0219,0.0828,0,0,nothing
0.0260,0.0828,0,0,nothing
0.0302,0.0828,0,0,nothing
0.0343,0.0828,0,0,nothing
0.0385,0.0828,0,0,nothing
0.0426,0.0828,0,0,nothing
0.0467,0.0828,0,0,nothing
0.0453,-0.0294,0,1,nothing
0.0432,-0.0413,0,1,nothing
0.0405,-0.0532,0,1,nothing
0.0373,-0.0651,0,1,nothing
0.0334,-0.0769,0,1,nothing
0.0290,-0.0886,0,1,nothing
0.0240,-0.1002,0,1,nothing
0.0184,-0.1118,0,1,nothing
0.0122,-0.1232,0,1,nothing
0.0055,-0.1345,0,1,nothing
-0.0018,-0.1458,0,1,nothing
-0.0022,-0.0087,1,1,nothing
-0.0022,0.0001,1,1,nothing
-0.0022,0.0001,1,1,nothing
-0.0014,0.0160,1,1,nothing
-0.0014,0.0011,1,1,nothing
-0.0014,0.0000,1,1,nothing
-0.0014,-0.0000,1,1,nothing
-0.0014,-0.0000,1,1,nothing
-0.0014,-0.0000,1,1,nothing
-0.0014,0.0000,1,1,nothing
-0.0014,0.0000,1,1,nothing
-0.0014,0.0000,1,1,nothing
-0.0014,-0.0000,1,1,nothing
-0.0014,-0.0000,1,1,nothing
-0.0014,-0.0000,1,1,nothing
-0.0014,-0.0000,1,1,nothing
-0.0014,0.0000,1,1,nothing
-0.0014,0.0000,1,1,nothing
-0.0014,0.0000,1,1,nothing
-0.0014,-0.0000,1,1,nothing
-0.0014,-0.0000,1,1,nothing
-0.0014,-0.0000,1,1,nothing
-0.0014,0.0000,1,1,nothing
-0.0014,0.0000,1,1,nothing
-0.0014,0.0000,1,1,nothing
-0.0014,0.0000,1,1,nothing
-0.0014,0.0000,1,1,nothing
-0.0014,0.0000,1,1,nothing
-0.0014,0.0000,1,1,nothing
0.0166,0.1642,0,0,nothing
0.0248,0.1641,0,0,nothing
0.0330,0.1641,0,0,nothing
0.0412,0.1641,0,0,nothing
0.0494,0.1640,0,0,nothing
0.0576,0.1640,0,0,nothing
0.0658,0.1640,0,0,nothing
0.0740,0.1640,0,0,nothing
0.0822,0.1639,0,0,nothing
0.0904,0.1639,0,0,nothing
0.0986,0.1639,0,0,nothing
0.1068,0.1639,0,0,nothing
0.1150,0.1638,0,0,nothing
0.1232,0.1638,0,0,nothing
0.1314,0.1638,0,0,nothing
0.1396,0.1638,0,0,nothing
0.1477,0.1637,0,0,nothing
0.1559,0.1637,0,0,nothing
