@RELATION lunar_lander_filter1

@ATTRIBUTE x_position    NUMERIC
@ATTRIBUTE y_position    NUMERIC
@ATTRIBUTE x_velocity    NUMERIC
@ATTRIBUTE y_velocity    NUMERIC
@ATTRIBUTE action        {nothing, left_engine, main_engine, right_engine}

@DATA
-0.0001,1.4082,-0.0064,-0.0611,nothing
-0.0002,1.4068,-0.0064,-0.0654,nothing
-0.0003,1.4052,-0.0064,-0.0697,nothing
-0.0003,1.4035,-0.0064,-0.0740,nothing
-0.0004,1.4018,-0.0064,-0.0784,nothing
-0.0004,1.3999,-0.0064,-0.0827,nothing
-0.0005,1.3980,-0.0064,-0.0870,nothing
-0.0006,1.3959,-0.0064,-0.0913,nothing
-0.0006,1.3938,-0.0064,-0.0957,nothing
-0.0007,1.3915,-0.0064,-0.1000,nothing
-0.0008,1.3892,-0.0064,-0.1043,nothing
-0.0008,1.3867,-0.0064,-0.1086,nothing
-0.0009,1.3842,-0.0064,-0.1129,nothing
-0.0009,1.3815,-0.0064,-0.1173,nothing
-0.0010,1.3788,-0.0064,-0.1216,nothing
-0.0011,1.3760,-0.0064,-0.1259,nothing
-0.0011,1.3730,-0.0064,-0.1302,nothing
-0.0012,1.3700,-0.0064,-0.1346,nothing
-0.0013,1.3669,-0.0064,-0.1389,nothing
-0.0013,1.3637,-0.0064,-0.1432,nothing
-0.0014,1.3603,-0.0064,-0.1475,nothing
-0.0014,1.3569,-0.0064,-0.1518,nothing
-0.0015,1.3534,-0.0064,-0.1562,nothing
-0.0016,1.3498,-0.0064,-0.1605,nothing
-0.0016,1.3461,-0.0064,-0.1658,nothing
-0.0017,1.3422,-0.0064,-0.1701,nothing
-0.0018,1.3383,-0.0064,-0.1744,nothing
-0.0018,1.3343,-0.0064,-0.1787,nothing
-0.0019,1.3302,-0.0064,-0.1830,nothing
-0.0019,1.3260,-0.0064,-0.1874,nothing
-0.0020,1.3216,-0.0064,-0.1917,nothing
-0.0021,1.3172,-0.0064,-0.1960,nothing
-0.0021,1.3127,-0.0064,-0.2003,nothing
-0.0022,1.3081,-0.0064,-0.2046,nothing
-0.0023,1.3034,-0.0064,-0.2090,nothing
-0.0023,1.2986,-0.0064,-0.2133,nothing
-0.0024,1.2937,-0.0064,-0.2176,nothing
-0.0025,1.2887,-0.0064,-0.2219,nothing
-0.0025,1.2836,-0.0064,-0.2262,nothing
-0.0026,1.2785,-0.0064,-0.2306,nothing
-0.0026,1.2732,-0.0064,-0.2349,nothing
-0.0027,1.2678,-0.0064,-0.2392,nothing
-0.0028,1.2623,-0.0064,-0.2435,nothing
-0.0028,1.2567,-0.0064,-0.2478,nothing
-0.0029,1.2511,-0.0064,-0.2522,nothing
-0.0030,1.2453,-0.0064,-0.2565,nothing
-0.0030,1.2394,-0.0064,-0.2608,nothing
-0.0031,1.2335,-0.0064,-0.2651,nothing
-0.0031,1.2274,-0.0064,-0.2694,nothing
-0.0032,1.2212,-0.0064,-0.2738,nothing
-0.0033,1.2150,-0.0064,-0.2781,nothing
-0.0032,1.2093,0.0053,-0.2504,main_engine
-0.0031,1.2042,0.0093,-0.2273,main_engine
-0.0030,1.2002,0.0054,-0.1809,main_engine
-0.0030,1.1960,0.0054,-0.1852,nothing
-0.0029,1.1917,0.0054,-0.1895,nothing
-0.0029,1.1874,0.0054,-0.1938,nothing
-0.0028,1.1829,0.0054,-0.1981,nothing
-0.0027,1.1784,0.0054,-0.2025,nothing
-0.0027,1.1737,0.0054,-0.2068,nothing
-0.0026,1.1690,0.0054,-0.2111,nothing
-0.0026,1.1641,0.0054,-0.2154,nothing
-0.0025,1.1592,0.0054,-0.2197,nothing
-0.0024,1.1541,0.0054,-0.2241,nothing
-0.0024,1.1490,0.0054,-0.2284,nothing
-0.0023,1.1437,0.0054,-0.2327,nothing
-0.0023,1.1384,0.0054,-0.2370,nothing
-0.0022,1.1330,0.0054,-0.2413,nothing
-0.0021,1.1275,0.0054,-0.2457,nothing
-0.0021,1.1218,0.0054,-0.2500,nothing
-0.0020,1.1161,0.0054,-0.2543,nothing
-0.0020,1.1103,0.0054,-0.2586,nothing
-0.0019,1.1044,0.0054,-0.2629,nothing
-0.0018,1.0984,0.0054,-0.2673,nothing
-0.0018,1.0923,0.0054,-0.2716,nothing
-0.0017,1.0860,0.0054,-0.2759,nothing
-0.0016,1.0797,0.0054,-0.2802,nothing
-0.0016,1.0733,0.0054,-0.2845,nothing
-0.0015,1.0668,0.0054,-0.2889,nothing
-0.0015,1.0602,0.0054,-0.2932,nothing
-0.0014,1.0536,0.0054,-0.2975,nothing
-0.0013,1.0468,0.0054,-0.3018,nothing
-0.0013,1.0399,0.0054,-0.3061,nothing
-0.0012,1.0329,0.0054,-0.3105,nothing
-0.0012,1.0258,0.0054,-0.3148,nothing
-0.0011,1.0186,0.0054,-0.3191,nothing
-0.0010,1.0113,0.0054,-0.3234,nothing
-0.0010,1.0040,0.0054,-0.3277,nothing
-0.0009,0.9965,0.0054,-0.3321,nothing
-0.0009,0.9889,0.0054,-0.3364,nothing
-0.0008,0.9813,0.0054,-0.3407,nothing
-0.0007,0.9735,0.0054,-0.3450,nothing
-0.0007,0.9656,0.0054,-0.3493,nothing
-0.0007,0.9586,-0.0065,-0.3141,main_engine
-0.0009,0.9530,-0.0189,-0.2488,main_engine
-0.0011,0.9473,-0.0189,-0.2532,nothing
-0.0013,0.9415,-0.0189,-0.2575,nothing
-0.0015,0.9356,-0.0189,-0.2618,nothing
-0.0017,0.9296,-0.0189,-0.2661,nothing
-0.0019,0.9235,-0.0189,-0.2704,nothing
-0.0021,0.9173,-0.0189,-0.2748,nothing
-0.0023,0.9111,-0.0189,-0.2791,nothing
-0.0025,0.9047,-0.0189,-0.2834,nothing
-0.0027,0.8982,-0.0189,-0.2877,nothing
-0.0028,0.8916,-0.0189,-0.2920,nothing
-0.0030,0.8850,-0.0189,-0.2964,nothing
-0.0032,0.8782,-0.0189,-0.3007,nothing
-0.0034,0.8713,-0.0189,-0.3050,nothing
-0.0036,0.8644,-0.0189,-0.3093,nothing
-0.0038,0.8573,-0.0189,-0.3136,nothing
-0.0040,0.8502,-0.0189,-0.3180,nothing
-0.0042,0.8429,-0.0189,-0.3223,nothing
-0.0044,0.8356,-0.0189,-0.3266,nothing
-0.0046,0.8281,-0.0189,-0.3309,nothing
-0.0048,0.8206,-0.0189,-0.3352,nothing
-0.0050,0.8129,-0.0189,-0.3396,nothing
-0.0052,0.8052,-0.0189,-0.3439,nothing
-0.0053,0.7974,-0.0189,-0.3482,nothing
-0.0055,0.7894,-0.0189,-0.3525,nothing
-0.0057,0.7814,-0.0189,-0.3568,nothing
-0.0059,0.7733,-0.0189,-0.3612,nothing
-0.0061,0.7651,-0.0189,-0.3655,nothing
-0.0063,0.7567,-0.0189,-0.3698,nothing
-0.0065,0.7483,-0.0189,-0.3741,nothing
-0.0067,0.7398,-0.0189,-0.3784,nothing
-0.0069,0.7312,-0.0189,-0.3828,nothing
-0.0071,0.7225,-0.0189,-0.3871,nothing
-0.0073,0.7137,-0.0189,-0.3914,nothing
-0.0075,0.7048,-0.0189,-0.3957,nothing
-0.0076,0.6958,-0.0189,-0.4000,nothing
-0.0078,0.6867,-0.0189,-0.4044,nothing
-0.0080,0.6775,-0.0189,-0.4087,nothing
-0.0082,0.6682,-0.0189,-0.4130,nothing
-0.0084,0.6588,-0.0189,-0.4173,nothing
-0.0086,0.6500,-0.0202,-0.3919,main_engine
-0.0090,0.6422,-0.0370,-0.3463,main_engine
-0.0093,0.6350,-0.0323,-0.3213,main_engine
-0.0097,0.6276,-0.0323,-0.3257,nothing
-0.0100,0.6202,-0.0323,-0.3300,nothing
-0.0103,0.6127,-0.0323,-0.3343,nothing
-0.0106,0.6051,-0.0323,-0.3386,nothing
-0.0110,0.5974,-0.0323,-0.3429,nothing
-0.0113,0.5895,-0.0323,-0.3473,nothing
-0.0116,0.5816,-0.0323,-0.3516,nothing
-0.0120,0.5736,-0.0323,-0.3559,nothing
-0.0122,0.5664,-0.0263,-0.3211,main_engine
-0.0125,0.5606,-0.0249,-0.2564,main_engine
-0.0127,0.5548,-0.0249,-0.2607,nothing
-0.0130,0.5488,-0.0249,-0.2650,nothing
-0.0132,0.5427,-0.0249,-0.2694,nothing
-0.0135,0.5366,-0.0249,-0.2737,nothing
-0.0137,0.5303,-0.0249,-0.2780,nothing
-0.0140,0.5240,-0.0249,-0.2823,nothing
-0.0142,0.5175,-0.0249,-0.2866,nothing
-0.0147,0.5122,-0.0426,-0.2361,main_engine
-0.0153,0.5074,-0.0584,-0.2123,main_engine
-0.0159,0.5026,-0.0584,-0.2166,nothing
-0.0165,0.4976,-0.0584,-0.2209,nothing
-0.0171,0.4925,-0.0584,-0.2252,nothing
-0.0177,0.4874,-0.0584,-0.2296,nothing
-0.0183,0.4821,-0.0584,-0.2339,nothing
-0.0189,0.4767,-0.0584,-0.2382,nothing
-0.0195,0.4713,-0.0584,-0.2425,nothing
-0.0201,0.4657,-0.0584,-0.2468,nothing
-0.0207,0.4601,-0.0584,-0.2512,nothing
-0.0213,0.4543,-0.0584,-0.2555,nothing
-0.0219,0.4485,-0.0584,-0.2598,nothing
-0.0225,0.4425,-0.0584,-0.2641,nothing
-0.0231,0.4365,-0.0584,-0.2684,nothing
-0.0237,0.4304,-0.0584,-0.2728,nothing
-0.0243,0.4241,-0.0584,-0.2771,nothing
-0.0249,0.4178,-0.0584,-0.2814,nothing
-0.0255,0.4114,-0.0584,-0.2857,nothing
-0.0261,0.4048,-0.0584,-0.2900,nothing
-0.0267,0.3982,-0.0584,-0.2944,nothing
-0.0273,0.3915,-0.0584,-0.2987,nothing
-0.0279,0.3847,-0.0584,-0.3030,nothing
-0.0285,0.3778,-0.0584,-0.3073,nothing
-0.0290,0.3722,-0.0466,-0.2477,main_engine
-0.0296,0.3680,-0.0603,-0.1882,main_engine
-0.0303,0.3642,-0.0654,-0.1690,main_engine
-0.0311,0.3610,-0.0799,-0.1383,main_engine
-0.0320,0.3578,-0.0799,-0.1426,nothing
-0.0328,0.3545,-0.0799,-0.1470,nothing
-0.0336,0.3511,-0.0799,-0.1513,nothing
-0.0345,0.3476,-0.0799,-0.1556,nothing
-0.0353,0.3440,-0.0799,-0.1599,nothing
-0.0361,0.3403,-0.0799,-0.1642,nothing
-0.0370,0.3366,-0.0799,-0.1686,nothing
-0.0378,0.3327,-0.0799,-0.1729,nothing
-0.0386,0.3287,-0.0799,-0.1772,nothing
-0.0395,0.3246,-0.0799,-0.1815,nothing
-0.0403,0.3204,-0.0799,-0.1858,nothing
-0.0411,0.3162,-0.0799,-0.1902,nothing
-0.0420,0.3118,-0.0799,-0.1945,nothing
-0.0428,0.3073,-0.0799,-0.1988,nothing
-0.0436,0.3027,-0.0799,-0.2031,nothing
-0.0445,0.2981,-0.0799,-0.2074,nothing
-0.0453,0.2933,-0.0799,-0.2118,nothing
-0.0461,0.2885,-0.0799,-0.2161,nothing
-0.0470,0.2835,-0.0799,-0.2204,nothing
-0.0478,0.2785,-0.0799,-0.2247,nothing
-0.0486,0.2733,-0.0799,-0.2291,nothing
-0.0495,0.2681,-0.0799,-0.2334,nothing
-0.0503,0.2627,-0.0799,-0.2377,nothing
-0.0512,0.2573,-0.0899,-0.2410,left_engine
-0.0522,0.2518,-0.1019,-0.2445,left_engine
-0.0533,0.2462,-0.1125,-0.2481,left_engine
-0.0544,0.2405,-0.1125,-0.2524,nothing
-0.0555,0.2347,-0.1125,-0.2567,nothing
-0.0566,0.2289,-0.1125,-0.2610,nothing
-0.0577,0.2229,-0.1125,-0.2654,nothing
-0.0588,0.2168,-0.1125,-0.2697,nothing
-0.0599,0.2106,-0.1125,-0.2740,nothing
-0.0609,0.2044,-0.1125,-0.2783,nothing
-0.0620,0.1980,-0.1125,-0.2826,nothing
-0.0631,0.1916,-0.1125,-0.2870,nothing
-0.0642,0.1850,-0.1125,-0.2913,nothing
-0.0653,0.1783,-0.1125,-0.2956,nothing
-0.0664,0.1716,-0.1125,-0.2999,nothing
-0.0675,0.1647,-0.1125,-0.3042,nothing
-0.0687,0.1578,-0.1249,-0.3082,left_engine
-0.0699,0.1508,-0.1323,-0.3121,left_engine
-0.0712,0.1436,-0.1323,-0.3165,nothing
-0.0724,0.1364,-0.1323,-0.3208,nothing
-0.0736,0.1291,-0.1225,-0.3255,right_engine
-0.0747,0.1217,-0.1107,-0.3299,right_engine
-0.0757,0.1141,-0.1028,-0.3347,right_engine
-0.0766,0.1065,-0.0912,-0.3391,right_engine
-0.0775,0.0988,-0.0829,-0.3441,right_engine
-0.0782,0.0909,-0.0715,-0.3489,right_engine
-0.0789,0.0830,-0.0631,-0.3538,right_engine
-0.0795,0.0749,-0.0522,-0.3585,right_engine
-0.0801,0.0667,-0.0418,-0.3631,right_engine
-0.0806,0.0585,-0.0418,-0.3675,nothing
-0.0811,0.0501,-0.0418,-0.3718,nothing
-0.0817,0.0417,-0.0418,-0.3761,nothing
-0.0822,0.0331,-0.0418,-0.3804,nothing
-0.0827,0.0245,-0.0418,-0.3848,nothing
-0.0832,0.0158,-0.0418,-0.3891,nothing
-0.0838,0.0069,-0.0418,-0.3934,nothing
-0.0843,-0.0012,-0.0545,-0.3619,nothing
-0.0846,-0.0088,-0.0600,-0.3365,nothing
-0.0848,-0.0159,-0.0662,-0.3125,nothing
-0.0850,-0.0219,-0.0614,-0.2641,nothing
-0.0851,-0.0268,-0.0609,-0.2194,nothing
-0.0852,-0.0308,-0.0485,-0.1780,right_engine
-0.0853,-0.0339,-0.0379,-0.1388,right_engine
-0.0855,-0.0350,-0.0178,-0.0279,right_engine
-0.0037,1.4302,-0.1860,0.4271,nothing
-0.0055,1.4397,-0.1860,0.4228,nothing
-0.0074,1.4491,-0.1860,0.4185,nothing
-0.0092,1.4585,-0.1860,0.4141,nothing
-0.0110,1.4677,-0.1860,0.4098,nothing
-0.0129,1.4768,-0.1860,0.4055,nothing
-0.0147,1.4858,-0.1860,0.4012,nothing
-0.0165,1.4948,-0.1860,0.3969,nothing
-0.0184,1.5036,-0.1860,0.3925,nothing
-0.0202,1.5123,-0.1860,0.3882,nothing
-0.0221,1.5210,-0.1860,0.3839,nothing
-0.0239,1.5295,-0.1860,0.3796,nothing
-0.0257,1.5380,-0.1860,0.3752,nothing
-0.0276,1.5463,-0.1861,0.3709,nothing
-0.0294,1.5546,-0.1861,0.3666,nothing
-0.0313,1.5627,-0.1861,0.3623,nothing
-0.0331,1.5708,-0.1861,0.3580,nothing
-0.0349,1.5787,-0.1861,0.3536,nothing
-0.0368,1.5866,-0.1861,0.3493,nothing
-0.0386,1.5943,-0.1861,0.3450,nothing
-0.0405,1.6020,-0.1861,0.3407,nothing
-0.0423,1.6096,-0.1861,0.3363,nothing
-0.0441,1.6170,-0.1861,0.3320,nothing
-0.0460,1.6244,-0.1861,0.3277,nothing
-0.0478,1.6317,-0.1860,0.3224,nothing
-0.0497,1.6388,-0.1860,0.3181,nothing
-0.0515,1.6459,-0.1860,0.3138,nothing
-0.0533,1.6529,-0.1860,0.3095,nothing
-0.0552,1.6597,-0.1860,0.3051,nothing
-0.0570,1.6665,-0.1860,0.3008,nothing
-0.0589,1.6732,-0.1860,0.2965,nothing
-0.0607,1.6798,-0.1860,0.2922,nothing
-0.0625,1.6862,-0.1860,0.2879,nothing
-0.0644,1.6926,-0.1860,0.2835,nothing
-0.0662,1.6989,-0.1860,0.2792,nothing
-0.0681,1.7051,-0.1860,0.2749,nothing
-0.0699,1.7112,-0.1860,0.2706,nothing
-0.0717,1.7172,-0.1860,0.2663,nothing
-0.0736,1.7231,-0.1860,0.2619,nothing
-0.0754,1.7289,-0.1860,0.2576,nothing
-0.0773,1.7346,-0.1860,0.2533,nothing
-0.0791,1.7402,-0.1860,0.2490,nothing
-0.0809,1.7457,-0.1860,0.2447,nothing
-0.0828,1.7511,-0.1860,0.2403,nothing
-0.0846,1.7564,-0.1860,0.2360,nothing
-0.0865,1.7616,-0.1860,0.2317,nothing
-0.0883,1.7667,-0.1860,0.2274,nothing
-0.0901,1.7718,-0.1860,0.2231,nothing
-0.0920,1.7767,-0.1860,0.2187,nothing
-0.0938,1.7815,-0.1860,0.2144,nothing
-0.0956,1.7862,-0.1860,0.2101,nothing
-0.0975,1.7909,-0.1860,0.2058,nothing
-0.0993,1.7954,-0.1860,0.2015,nothing
-0.1012,1.7998,-0.1860,0.1971,nothing
-0.1030,1.8042,-0.1860,0.1928,nothing
-0.1048,1.8084,-0.1860,0.1885,nothing
-0.1067,1.8126,-0.1860,0.1842,nothing
-0.1085,1.8166,-0.1860,0.1798,nothing
-0.1104,1.8206,-0.1860,0.1755,nothing
-0.1122,1.8244,-0.1860,0.1712,nothing
-0.1140,1.8282,-0.1860,0.1669,nothing
-0.1159,1.8319,-0.1860,0.1626,nothing
-0.1177,1.8354,-0.1860,0.1582,nothing
-0.1196,1.8389,-0.1860,0.1539,nothing
-0.1214,1.8423,-0.1860,0.1496,nothing
-0.1232,1.8455,-0.1860,0.1453,nothing
-0.1251,1.8487,-0.1860,0.1410,nothing
-0.1269,1.8518,-0.1860,0.1366,nothing
-0.1288,1.8548,-0.1860,0.1323,nothing
-0.1306,1.8577,-0.1860,0.1280,nothing
-0.1324,1.8604,-0.1860,0.1237,nothing
-0.1343,1.8631,-0.1860,0.1194,nothing
-0.1361,1.8657,-0.1860,0.1150,nothing
-0.1380,1.8682,-0.1860,0.1107,nothing
-0.1398,1.8706,-0.1860,0.1064,nothing
-0.1416,1.8729,-0.1860,0.1021,nothing
-0.1435,1.8751,-0.1860,0.0978,nothing
-0.1453,1.8772,-0.1860,0.0934,nothing
-0.1472,1.8793,-0.1860,0.0891,nothing
-0.1490,1.8812,-0.1860,0.0848,nothing
-0.1508,1.8830,-0.1860,0.0805,nothing
-0.1527,1.8847,-0.1860,0.0762,nothing
-0.1545,1.8863,-0.1860,0.0718,nothing
-0.1564,1.8878,-0.1860,0.0675,nothing
-0.1582,1.8893,-0.1860,0.0632,nothing
-0.1600,1.8906,-0.1860,0.0589,nothing
-0.1619,1.8918,-0.1860,0.0546,nothing
-0.1637,1.8930,-0.1860,0.0502,nothing
-0.1656,1.8940,-0.1860,0.0459,nothing
-0.1674,1.8950,-0.1860,0.0416,nothing
-0.1692,1.8958,-0.1860,0.0373,nothing
-0.1711,1.8965,-0.1860,0.0330,nothing
-0.1729,1.8972,-0.1860,0.0286,nothing
-0.1747,1.8978,-0.1860,0.0243,nothing
-0.1766,1.8982,-0.1860,0.0200,nothing
-0.1784,1.8986,-0.1860,0.0157,nothing
-0.1803,1.8988,-0.1860,0.0114,nothing
-0.1821,1.8990,-0.1860,0.0070,nothing
-0.1839,1.8991,-0.1860,0.0027,nothing
-0.1858,1.8990,-0.1860,-0.0016,nothing
-0.1876,1.8989,-0.1860,-0.0059,nothing
-0.1895,1.8987,-0.1860,-0.0102,nothing
-0.1913,1.8984,-0.1860,-0.0146,nothing
-0.1931,1.8979,-0.1860,-0.0189,nothing
-0.1950,1.8974,-0.1860,-0.0232,nothing
-0.1968,1.8968,-0.1860,-0.0275,nothing
-0.1987,1.8961,-0.1860,-0.0318,nothing
-0.2005,1.8953,-0.1860,-0.0362,nothing
-0.2023,1.8944,-0.1860,-0.0405,nothing
-0.2042,1.8934,-0.1860,-0.0448,nothing
-0.2060,1.8923,-0.1860,-0.0491,nothing
-0.2079,1.8911,-0.1860,-0.0535,nothing
-0.2097,1.8898,-0.1860,-0.0578,nothing
-0.2115,1.8884,-0.1860,-0.0621,nothing
-0.2134,1.8869,-0.1860,-0.0664,nothing
-0.2152,1.8853,-0.1860,-0.0707,nothing
-0.2171,1.8837,-0.1860,-0.0751,nothing
-0.2189,1.8819,-0.1860,-0.0794,nothing
-0.2207,1.8800,-0.1860,-0.0837,nothing
-0.2226,1.8780,-0.1860,-0.0880,nothing
-0.2244,1.8760,-0.1860,-0.0923,nothing
-0.2263,1.8738,-0.1860,-0.0967,nothing
-0.2281,1.8715,-0.1860,-0.1010,nothing
-0.2299,1.8692,-0.1860,-0.1053,nothing
-0.2318,1.8667,-0.1860,-0.1096,nothing
-0.2336,1.8642,-0.1860,-0.1139,nothing
-0.2355,1.8615,-0.1860,-0.1183,nothing
-0.2373,1.8588,-0.1860,-0.1226,nothing
-0.2391,1.8559,-0.1860,-0.1269,nothing
-0.2410,1.8530,-0.1860,-0.1312,nothing
-0.2428,1.8499,-0.1860,-0.1355,nothing
-0.2447,1.8468,-0.1860,-0.1399,nothing
-0.2465,1.8436,-0.1860,-0.1442,nothing
-0.2483,1.8402,-0.1860,-0.1485,nothing
-0.2502,1.8368,-0.1860,-0.1528,nothing
-0.2520,1.8333,-0.1860,-0.1571,nothing
-0.2539,1.8296,-0.1860,-0.1615,nothing
-0.2557,1.8259,-0.1860,-0.1658,nothing
-0.2575,1.8221,-0.1860,-0.1701,nothing
-0.2594,1.8182,-0.1860,-0.1744,nothing
-0.2612,1.8142,-0.1860,-0.1787,nothing
-0.2631,1.8101,-0.1860,-0.1831,nothing
-0.2649,1.8059,-0.1860,-0.1874,nothing
-0.2667,1.8016,-0.1860,-0.1917,nothing
-0.2686,1.7972,-0.1860,-0.1960,nothing
-0.2704,1.7927,-0.1860,-0.2003,nothing
-0.2723,1.7881,-0.1860,-0.2047,nothing
-0.2741,1.7834,-0.1860,-0.2090,nothing
-0.2759,1.7786,-0.1860,-0.2133,nothing
-0.2778,1.7737,-0.1860,-0.2176,nothing
-0.2796,1.7687,-0.1860,-0.2219,nothing
-0.2815,1.7636,-0.1860,-0.2263,nothing
-0.2833,1.7584,-0.1860,-0.2306,nothing
-0.2851,1.7532,-0.1860,-0.2349,nothing
-0.2870,1.7478,-0.1860,-0.2392,nothing
-0.2888,1.7423,-0.1860,-0.2435,nothing
-0.2907,1.7368,-0.1860,-0.2479,nothing
-0.2925,1.7311,-0.1860,-0.2522,nothing
-0.2943,1.7253,-0.1860,-0.2565,nothing
-0.2962,1.7195,-0.1860,-0.2608,nothing
-0.2980,1.7135,-0.1860,-0.2651,nothing
-0.2999,1.7075,-0.1860,-0.2695,nothing
-0.3017,1.7013,-0.1860,-0.2738,nothing
-0.3036,1.6951,-0.1860,-0.2781,nothing
-0.3054,1.6887,-0.1860,-0.2824,nothing
-0.3072,1.6823,-0.1860,-0.2867,nothing
-0.3091,1.6758,-0.1860,-0.2911,nothing
-0.3109,1.6691,-0.1860,-0.2954,nothing
-0.3128,1.6624,-0.1860,-0.2997,nothing
-0.3146,1.6556,-0.1860,-0.3040,nothing
-0.3164,1.6486,-0.1860,-0.3084,nothing
-0.3183,1.6416,-0.1860,-0.3127,nothing
-0.3201,1.6345,-0.1860,-0.3170,nothing
-0.3220,1.6273,-0.1860,-0.3213,nothing
-0.3238,1.6199,-0.1860,-0.3256,nothing
-0.3256,1.6125,-0.1860,-0.3300,nothing
-0.3275,1.6050,-0.1860,-0.3343,nothing
-0.3293,1.5974,-0.1860,-0.3386,nothing
-0.3312,1.5897,-0.1860,-0.3429,nothing
-0.3330,1.5819,-0.1860,-0.3472,nothing
-0.3348,1.5740,-0.1860,-0.3516,nothing
-0.3367,1.5660,-0.1860,-0.3559,nothing
-0.3385,1.5579,-0.1860,-0.3602,nothing
-0.3404,1.5497,-0.1860,-0.3645,nothing
-0.3422,1.5415,-0.1860,-0.3688,nothing
-0.3440,1.5331,-0.1860,-0.3732,nothing
-0.3459,1.5246,-0.1860,-0.3775,nothing
-0.3477,1.5160,-0.1860,-0.3818,nothing
-0.3496,1.5073,-0.1860,-0.3861,nothing
-0.3514,1.4986,-0.1860,-0.3904,nothing
-0.3532,1.4897,-0.1860,-0.3948,nothing
-0.3551,1.4807,-0.1860,-0.3991,nothing
-0.3569,1.4717,-0.1860,-0.4034,nothing
-0.3588,1.4625,-0.1860,-0.4077,nothing
-0.3606,1.4532,-0.1860,-0.4120,nothing
-0.3625,1.4439,-0.1860,-0.4164,nothing
-0.3643,1.4344,-0.1860,-0.4207,nothing
-0.3661,1.4249,-0.1860,-0.4250,nothing
-0.3680,1.4152,-0.1860,-0.4293,nothing
-0.3698,1.4055,-0.1860,-0.4336,nothing
-0.3717,1.3956,-0.1860,-0.4380,nothing
-0.3735,1.3857,-0.1860,-0.4423,nothing
-0.3753,1.3757,-0.1860,-0.4466,nothing
-0.3772,1.3655,-0.1860,-0.4509,nothing
-0.3790,1.3553,-0.1860,-0.4552,nothing
-0.3809,1.3450,-0.1860,-0.4596,nothing
-0.3827,1.3346,-0.1860,-0.4639,nothing
-0.3845,1.3240,-0.1860,-0.4682,nothing
-0.3864,1.3134,-0.1860,-0.4725,nothing
-0.3882,1.3027,-0.1860,-0.4768,nothing
-0.3901,1.2919,-0.1860,-0.4812,nothing
-0.3919,1.2810,-0.1860,-0.4855,nothing
-0.3937,1.2700,-0.1860,-0.4898,nothing
-0.3956,1.2589,-0.1860,-0.4941,nothing
-0.3974,1.2477,-0.1860,-0.4984,nothing
-0.3993,1.2364,-0.1860,-0.5028,nothing
-0.4011,1.2250,-0.1860,-0.5071,nothing
-0.4030,1.2135,-0.1860,-0.5114,nothing
-0.4048,1.2019,-0.1860,-0.5157,nothing
-0.4066,1.1902,-0.1860,-0.5200,nothing
-0.4085,1.1784,-0.1860,-0.5244,nothing
-0.4103,1.1665,-0.1860,-0.5287,nothing
-0.4122,1.1545,-0.1966,-0.5362,left_engine
-0.4142,1.1423,-0.2054,-0.5436,left_engine
-0.4163,1.1300,-0.2132,-0.5510,left_engine
-0.4184,1.1175,-0.2212,-0.5580,left_engine
-0.4206,1.1049,-0.2307,-0.5657,left_engine
-0.4229,1.0921,-0.2384,-0.5726,left_engine
-0.4252,1.0792,-0.2493,-0.5806,left_engine
-0.4276,1.0661,-0.2563,-0.5883,left_engine
-0.4301,1.0528,-0.2641,-0.5954,left_engine
-0.4325,1.0395,-0.2640,-0.5998,nothing
-0.4350,1.0261,-0.2640,-0.6041,nothing
-0.4375,1.0126,-0.2640,-0.6085,nothing
-0.4399,0.9990,-0.2640,-0.6128,nothing
-0.4424,0.9853,-0.2639,-0.6171,nothing
-0.4449,0.9715,-0.2639,-0.6215,nothing
-0.4474,0.9577,-0.2638,-0.6258,nothing
-0.4499,0.9437,-0.2638,-0.6302,nothing
-0.4523,0.9297,-0.2549,-0.6298,right_engine
-0.4546,0.9157,-0.2479,-0.6303,right_engine
-0.4569,0.9017,-0.2420,-0.6314,right_engine
-0.4592,0.8876,-0.2352,-0.6306,right_engine
-0.4614,0.8735,-0.2279,-0.6299,right_engine
-0.4636,0.8595,-0.2216,-0.6291,right_engine
-0.4657,0.8454,-0.2148,-0.6288,right_engine
-0.4678,0.8313,-0.2087,-0.6283,right_engine
-0.4698,0.8172,-0.2026,-0.6280,right_engine
-0.4717,0.8030,-0.1969,-0.6288,right_engine
-0.4737,0.7888,-0.1910,-0.6291,right_engine
-0.4755,0.7746,-0.1840,-0.6290,right_engine
-0.4774,0.7603,-0.1840,-0.6333,nothing
-0.4793,0.7459,-0.1840,-0.6376,nothing
-0.4812,0.7314,-0.1840,-0.6420,nothing
-0.4830,0.7169,-0.1786,-0.6421,right_engine
-0.4848,0.7024,-0.1712,-0.6409,right_engine
-0.4865,0.6878,-0.1711,-0.6452,nothing
-0.4883,0.6731,-0.1711,-0.6495,nothing
-0.4901,0.6582,-0.1711,-0.6539,nothing
-0.4919,0.6433,-0.1711,-0.6582,nothing
-0.4937,0.6283,-0.1711,-0.6625,nothing
-0.4954,0.6132,-0.1711,-0.6668,nothing
-0.4976,0.5986,-0.2082,-0.6444,main_engine
-0.5002,0.5847,-0.2530,-0.6138,main_engine
-0.5034,0.5717,-0.3113,-0.5746,main_engine
-0.5070,0.5593,-0.3574,-0.5491,main_engine
-0.5110,0.5471,-0.3931,-0.5365,main_engine
-0.5155,0.5355,-0.4407,-0.5102,main_engine
-0.5203,0.5246,-0.4677,-0.4799,main_engine
-0.5255,0.5147,-0.5120,-0.4379,main_engine
-0.5311,0.5055,-0.5602,-0.4051,main_engine
-0.5372,0.4974,-0.6028,-0.3569,main_engine
-0.5438,0.4902,-0.6485,-0.3150,main_engine
-0.5507,0.4835,-0.6816,-0.2932,main_engine
-0.5578,0.4773,-0.7009,-0.2756,main_engine
-0.5652,0.4715,-0.7346,-0.2512,main_engine
-0.5730,0.4663,-0.7751,-0.2300,main_engine
-0.5815,0.4621,-0.8371,-0.1840,main_engine
-0.5903,0.4588,-0.8799,-0.1412,main_engine
-0.5996,0.4562,-0.9155,-0.1140,main_engine
-0.6090,0.4541,-0.9342,-0.0875,main_engine
-0.6188,0.4529,-0.9743,-0.0491,main_engine
-0.6288,0.4522,-0.9967,-0.0303,main_engine
-0.6390,0.4520,-1.0108,-0.0042,main_engine
-0.6496,0.4528,-1.0498,0.0386,main_engine
-0.6605,0.4542,-1.0795,0.0637,main_engine
-0.6718,0.4563,-1.1258,0.0965,main_engine
-0.6837,0.4594,-1.1828,0.1403,main_engine
-0.6960,0.4630,-1.2176,0.1652,main_engine
-0.7085,0.4678,-1.2458,0.2151,main_engine
-0.7214,0.4732,-1.2745,0.2409,main_engine
-0.7345,0.4791,-1.3024,0.2679,main_engine
-0.7476,0.4850,-1.3023,0.2636,nothing
-0.7607,0.4907,-1.3023,0.2593,nothing
-0.7738,0.4964,-1.3023,0.2550,nothing
-0.7869,0.5020,-1.3023,0.2506,nothing
-0.8000,0.5075,-1.2919,0.2499,right_engine
-0.8129,0.5130,-1.2819,0.2479,right_engine
-0.8258,0.5185,-1.2725,0.2461,right_engine
-0.8386,0.5239,-1.2628,0.2440,right_engine
-0.8514,0.5292,-1.2540,0.2416,right_engine
-0.8640,0.5345,-1.2443,0.2399,right_engine
-0.8766,0.5397,-1.2327,0.2376,right_engine
-0.8891,0.5449,-1.2218,0.2359,right_engine
-0.9015,0.5500,-1.2136,0.2330,right_engine
-0.9139,0.5551,-1.2037,0.2306,right_engine
-0.9261,0.5601,-1.1924,0.2276,right_engine
-0.9383,0.5651,-1.1817,0.2243,right_engine
-0.9504,0.5700,-1.1739,0.2207,right_engine
-0.9625,0.5748,-1.1662,0.2170,right_engine
-0.9744,0.5796,-1.1542,0.2135,right_engine
-0.9863,0.5843,-1.1427,0.2091,right_engine
-0.9981,0.5890,-1.1324,0.2045,right_engine
-1.0098,0.5935,-1.1223,0.1993,right_engine
0.0120,1.3898,0.6073,-0.4711,nothing
0.0180,1.3791,0.6073,-0.4755,nothing
0.0240,1.3683,0.6074,-0.4798,nothing
0.0300,1.3574,0.6074,-0.4841,nothing
0.0360,1.3464,0.6074,-0.4885,nothing
0.0420,1.3353,0.6074,-0.4928,nothing
0.0480,1.3242,0.6074,-0.4971,nothing
0.0540,1.3129,0.6075,-0.5014,nothing
0.0601,1.3015,0.6075,-0.5058,nothing
0.0661,1.2900,0.6075,-0.5101,nothing
0.0721,1.2785,0.6075,-0.5144,nothing
0.0781,1.2668,0.6075,-0.5188,nothing
0.0841,1.2551,0.6076,-0.5231,nothing
0.0901,1.2432,0.6076,-0.5274,nothing
0.0961,1.2312,0.6076,-0.5317,nothing
0.1021,1.2192,0.6076,-0.5361,nothing
0.1081,1.2070,0.6076,-0.5404,nothing
0.1141,1.1948,0.6077,-0.5447,nothing
0.1201,1.1825,0.6077,-0.5490,nothing
0.1261,1.1700,0.6077,-0.5534,nothing
0.1321,1.1575,0.6077,-0.5577,nothing
0.1382,1.1449,0.6077,-0.5620,nothing
0.1442,1.1321,0.6077,-0.5664,nothing
0.1502,1.1193,0.6078,-0.5707,nothing
0.1562,1.1064,0.6075,-0.5759,nothing
0.1622,1.0933,0.6075,-0.5803,nothing
0.1682,1.0802,0.6075,-0.5846,nothing
0.1742,1.0670,0.6075,-0.5889,nothing
0.1802,1.0536,0.6075,-0.5932,nothing
0.1862,1.0402,0.6075,-0.5976,nothing
0.1921,1.0267,0.5972,-0.6009,left_engine
0.1980,1.0132,0.5863,-0.6032,left_engine
0.2037,0.9995,0.5749,-0.6061,left_engine
0.2094,0.9858,0.5655,-0.6094,left_engine
0.2150,0.9720,0.5551,-0.6125,left_engine
0.2205,0.9581,0.5438,-0.6154,left_engine
0.2259,0.9442,0.5361,-0.6184,left_engine
0.2313,0.9302,0.5283,-0.6212,left_engine
0.2366,0.9161,0.5205,-0.6244,left_engine
0.2419,0.9020,0.5103,-0.6275,left_engine
0.2470,0.8877,0.5010,-0.6307,left_engine
0.2521,0.8734,0.4900,-0.6344,left_engine
0.2571,0.8590,0.4805,-0.6384,left_engine
0.2621,0.8445,0.4730,-0.6420,left_engine
0.2669,0.8313,0.4657,-0.5867,main_engine
0.2717,0.8194,0.4631,-0.5274,main_engine
0.2767,0.8082,0.4749,-0.5007,main_engine
0.2816,0.7974,0.4717,-0.4787,main_engine
0.2867,0.7876,0.4855,-0.4356,main_engine
0.2917,0.7784,0.4798,-0.4082,main_engine
0.2966,0.7701,0.4765,-0.3672,main_engine
0.3015,0.7629,0.4678,-0.3221,main_engine
0.3062,0.7569,0.4479,-0.2686,main_engine
0.3107,0.7516,0.4306,-0.2352,main_engine
0.3153,0.7470,0.4412,-0.2073,main_engine
0.3197,0.7433,0.4173,-0.1674,main_engine
0.3239,0.7402,0.4088,-0.1408,main_engine
0.3281,0.7380,0.3971,-0.0977,main_engine
0.3323,0.7365,0.3987,-0.0695,main_engine
0.3363,0.7357,0.3869,-0.0396,main_engine
0.3403,0.7347,0.3788,-0.0453,left_engine
0.3442,0.7336,0.3671,-0.0520,left_engine
0.3481,0.7325,0.3595,-0.0574,left_engine
0.3518,0.7312,0.3498,-0.0631,left_engine
0.3556,0.7298,0.3498,-0.0675,nothing
0.3593,0.7282,0.3403,-0.0744,left_engine
0.3629,0.7266,0.3325,-0.0803,left_engine
0.3664,0.7249,0.3247,-0.0874,left_engine
0.3699,0.7229,0.3149,-0.0950,left_engine
0.3733,0.7209,0.3052,-0.1028,left_engine
0.3767,0.7188,0.3135,-0.1047,right_engine
0.3802,0.7167,0.3238,-0.1050,right_engine
0.3838,0.7146,0.3326,-0.1062,right_engine
0.3874,0.7124,0.3389,-0.1078,right_engine
0.3911,0.7102,0.3465,-0.1086,right_engine
0.3948,0.7079,0.3465,-0.1129,nothing
0.3985,0.7056,0.3532,-0.1133,right_engine
0.4023,0.7033,0.3592,-0.1144,right_engine
0.4061,0.7009,0.3674,-0.1141,right_engine
0.4100,0.6986,0.3731,-0.1144,right_engine
0.4139,0.6962,0.3787,-0.1151,right_engine
0.4179,0.6937,0.3854,-0.1148,right_engine
0.4219,0.6913,0.3915,-0.1149,right_engine
0.4259,0.6889,0.3992,-0.1133,right_engine
0.4300,0.6863,0.3992,-0.1176,nothing
0.4340,0.6837,0.3992,-0.1220,nothing
0.4381,0.6810,0.3992,-0.1263,nothing
0.4422,0.6782,0.3992,-0.1306,nothing
0.4462,0.6752,0.3992,-0.1349,nothing
0.4503,0.6722,0.3992,-0.1393,nothing
0.4543,0.6691,0.3992,-0.1436,nothing
0.4585,0.6660,0.4070,-0.1419,right_engine
0.4626,0.6629,0.4131,-0.1405,right_engine
0.4668,0.6598,0.4184,-0.1408,right_engine
0.4711,0.6567,0.4250,-0.1399,right_engine
0.4754,0.6535,0.4292,-0.1400,right_engine
0.4797,0.6503,0.4359,-0.1387,right_engine
0.4841,0.6472,0.4410,-0.1384,right_engine
0.4885,0.6439,0.4410,-0.1427,nothing
0.4928,0.6405,0.4410,-0.1470,nothing
0.4968,0.6373,0.3995,-0.1409,main_engine
0.5004,0.6345,0.3653,-0.1218,main_engine
0.5034,0.6321,0.3029,-0.1012,main_engine
0.5059,0.6304,0.2494,-0.0743,main_engine
0.5078,0.6293,0.2008,-0.0441,main_engine
0.5096,0.6286,0.1763,-0.0278,main_engine
0.5109,0.6282,0.1378,-0.0137,main_engine
0.5119,0.6281,0.1048,-0.0027,main_engine
0.5125,0.6288,0.0593,0.0309,main_engine
0.5127,0.6299,0.0311,0.0550,main_engine
0.5127,0.6317,0.0007,0.0807,main_engine
0.5125,0.6340,-0.0231,0.1049,main_engine
0.5119,0.6370,-0.0569,0.1341,main_engine
0.5110,0.6404,-0.0905,0.1506,main_engine
0.5097,0.6441,-0.1262,0.1658,main_engine
0.5079,0.6487,-0.1832,0.2048,main_engine
0.5060,0.6532,-0.1832,0.2005,nothing
0.5042,0.6576,-0.1832,0.1962,nothing
0.5023,0.6619,-0.1832,0.1919,nothing
0.5005,0.6661,-0.1832,0.1875,nothing
0.4980,0.6709,-0.2460,0.2179,main_engine
0.4949,0.6766,-0.3127,0.2519,main_engine
0.4911,0.6833,-0.3741,0.2968,main_engine
0.4872,0.6904,-0.3938,0.3180,main_engine
0.4832,0.6974,-0.3938,0.3137,nothing
0.4793,0.7044,-0.3938,0.3094,nothing
0.4753,0.7113,-0.3938,0.3051,nothing
0.4714,0.7180,-0.3938,0.3008,nothing
0.4674,0.7247,-0.3938,0.2964,nothing
0.4635,0.7312,-0.3938,0.2921,nothing
0.4596,0.7377,-0.3938,0.2878,nothing
0.4556,0.7441,-0.3938,0.2835,nothing
0.4517,0.7503,-0.3938,0.2792,nothing
0.4477,0.7565,-0.3938,0.2748,nothing
0.4438,0.7626,-0.3938,0.2705,nothing
0.4398,0.7686,-0.3938,0.2662,nothing
0.4359,0.7744,-0.3938,0.2619,nothing
0.4319,0.7802,-0.3938,0.2576,nothing
0.4277,0.7864,-0.4224,0.2757,main_engine
0.4228,0.7932,-0.4853,0.3027,main_engine
0.4180,0.7999,-0.4853,0.2984,nothing
0.4131,0.8065,-0.4853,0.2940,nothing
0.4083,0.8130,-0.4853,0.2897,nothing
0.4034,0.8194,-0.4853,0.2854,nothing
0.3985,0.8257,-0.4853,0.2811,nothing
0.3937,0.8320,-0.4853,0.2768,nothing
0.3888,0.8381,-0.4853,0.2724,nothing
0.3840,0.8441,-0.4853,0.2681,nothing
0.3791,0.8500,-0.4853,0.2638,nothing
0.3742,0.8558,-0.4853,0.2595,nothing
0.3694,0.8616,-0.4853,0.2552,nothing
0.3645,0.8672,-0.4853,0.2508,nothing
0.3597,0.8727,-0.4853,0.2465,nothing
0.3544,0.8789,-0.5219,0.2761,main_engine
0.3487,0.8857,-0.5719,0.3011,main_engine
0.3430,0.8924,-0.5719,0.2968,nothing
0.3373,0.8989,-0.5719,0.2925,nothing
0.3315,0.9054,-0.5719,0.2882,nothing
0.3258,0.9118,-0.5719,0.2838,nothing
0.3201,0.9181,-0.5719,0.2795,nothing
0.3143,0.9243,-0.5719,0.2752,nothing
0.3086,0.9303,-0.5719,0.2709,nothing
0.3029,0.9363,-0.5719,0.2665,nothing
0.2972,0.9422,-0.5719,0.2622,nothing
0.2914,0.9480,-0.5781,0.2544,left_engine
0.2856,0.9535,-0.5860,0.2455,left_engine
0.2797,0.9589,-0.5941,0.2363,left_engine
0.2738,0.9642,-0.5941,0.2319,nothing
0.2679,0.9694,-0.5941,0.2276,nothing
0.2620,0.9744,-0.5941,0.2233,nothing
0.2561,0.9794,-0.5941,0.2190,nothing
0.2502,0.9843,-0.5941,0.2146,nothing
0.2443,0.9892,-0.5866,0.2161,right_engine
0.2385,0.9941,-0.5792,0.2165,right_engine
0.2328,0.9990,-0.5724,0.2175,right_engine
0.2271,1.0039,-0.5645,0.2190,right_engine
0.2215,1.0087,-0.5589,0.2182,right_engine
0.2159,1.0134,-0.5589,0.2139,nothing
0.2102,1.0181,-0.5589,0.2096,nothing
0.2046,1.0226,-0.5589,0.2053,nothing
0.1990,1.0271,-0.5589,0.2009,nothing
0.1933,1.0315,-0.5589,0.1966,nothing
0.1877,1.0357,-0.5588,0.1923,nothing
0.1821,1.0399,-0.5588,0.1880,nothing
0.1764,1.0440,-0.5588,0.1836,nothing
0.1709,1.0480,-0.5511,0.1836,right_engine
0.1653,1.0520,-0.5447,0.1838,right_engine
0.1599,1.0560,-0.5384,0.1837,right_engine
0.1544,1.0599,-0.5384,0.1794,nothing
0.1489,1.0638,-0.5384,0.1751,nothing
0.1434,1.0675,-0.5384,0.1707,nothing
0.1379,1.0711,-0.5384,0.1664,nothing
0.1325,1.0746,-0.5384,0.1621,nothing
0.1270,1.0781,-0.5384,0.1577,nothing
0.1215,1.0814,-0.5384,0.1534,nothing
0.1160,1.0847,-0.5383,0.1491,nothing
0.1105,1.0878,-0.5383,0.1448,nothing
0.1050,1.0909,-0.5383,0.1404,nothing
0.0995,1.0938,-0.5383,0.1361,nothing
0.0941,1.0967,-0.5383,0.1318,nothing
0.0886,1.0994,-0.5383,0.1274,nothing
0.0831,1.1021,-0.5383,0.1231,nothing
0.0776,1.1047,-0.5383,0.1188,nothing
0.0721,1.1072,-0.5383,0.1144,nothing
0.0666,1.1095,-0.5383,0.1101,nothing
0.0612,1.1119,-0.5294,0.1095,right_engine
0.0558,1.1142,-0.5201,0.1079,right_engine
0.0505,1.1165,-0.5125,0.1059,right_engine
0.0453,1.1187,-0.5061,0.1041,right_engine
0.0401,1.1208,-0.4961,0.1032,right_engine
0.0350,1.1229,-0.4960,0.0989,nothing
0.0298,1.1249,-0.4960,0.0945,nothing
0.0246,1.1268,-0.4960,0.0902,nothing
0.0194,1.1286,-0.4960,0.0858,nothing
0.0144,1.1304,-0.4857,0.0842,right_engine
0.0093,1.1321,-0.4781,0.0814,right_engine
0.0043,1.1338,-0.4780,0.0770,nothing
-0.0008,1.1353,-0.4780,0.0726,nothing
-0.0058,1.1367,-0.4780,0.0682,nothing
-0.0108,1.1381,-0.4780,0.0639,nothing
-0.0159,1.1394,-0.4779,0.0595,nothing
-0.0209,1.1406,-0.4779,0.0551,nothing
-0.0260,1.1417,-0.4779,0.0507,nothing
-0.0310,1.1427,-0.4779,0.0463,nothing
-0.0361,1.1436,-0.4779,0.0420,nothing
-0.0411,1.1444,-0.4779,0.0376,nothing
-0.0462,1.1452,-0.4779,0.0332,nothing
-0.0512,1.1458,-0.4779,0.0288,nothing
-0.0563,1.1464,-0.4779,0.0245,nothing
-0.0613,1.1469,-0.4779,0.0201,nothing
-0.0663,1.1473,-0.4779,0.0157,nothing
-0.0714,1.1476,-0.4779,0.0113,nothing
-0.0764,1.1478,-0.4779,0.0069,nothing
-0.0815,1.1479,-0.4779,0.0026,nothing
-0.0865,1.1480,-0.4780,-0.0018,nothing
-0.0916,1.1479,-0.4780,-0.0062,nothing
-0.0966,1.1478,-0.4780,-0.0106,nothing
-0.1016,1.1475,-0.4780,-0.0149,nothing
-0.1067,1.1472,-0.4780,-0.0193,nothing
-0.1117,1.1468,-0.4781,-0.0237,nothing
-0.1167,1.1463,-0.4781,-0.0281,nothing
-0.1218,1.1458,-0.4781,-0.0324,nothing
-0.1268,1.1451,-0.4782,-0.0368,nothing
-0.1316,1.1449,-0.4546,-0.0180,main_engine
-0.1361,1.1459,-0.4281,0.0377,main_engine
-0.1402,1.1482,-0.3896,0.0956,main_engine
-0.1444,1.1505,-0.3896,0.0913,nothing
-0.1485,1.1527,-0.3897,0.0869,nothing
-0.1526,1.1547,-0.3897,0.0825,nothing
-0.1567,1.1567,-0.3898,0.0781,nothing
-0.1609,1.1586,-0.3898,0.0738,nothing
-0.1650,1.1605,-0.3899,0.0694,nothing
-0.1691,1.1622,-0.3900,0.0650,nothing
-0.1732,1.1638,-0.3900,0.0607,nothing
-0.1773,1.1654,-0.3901,0.0563,nothing
-0.1814,1.1668,-0.3901,0.0519,nothing
-0.1855,1.1682,-0.3902,0.0476,nothing
-0.1896,1.1694,-0.3903,0.0432,nothing
-0.1937,1.1706,-0.3903,0.0388,nothing
-0.1978,1.1718,-0.3960,0.0383,left_engine
-0.2020,1.1729,-0.4034,0.0395,left_engine
-0.2062,1.1741,-0.4093,0.0397,left_engine
-0.2105,1.1752,-0.4157,0.0408,left_engine
-0.2148,1.1764,-0.4199,0.0409,left_engine
-0.2191,1.1774,-0.4199,0.0366,nothing
-0.2234,1.1783,-0.4200,0.0322,nothing
-0.2276,1.1792,-0.4200,0.0279,nothing
-0.2319,1.1799,-0.4200,0.0236,nothing
-0.2362,1.1806,-0.4201,0.0193,nothing
-0.2405,1.1811,-0.4201,0.0149,nothing
-0.2448,1.1816,-0.4201,0.0106,nothing
-0.2491,1.1819,-0.4201,0.0063,nothing
-0.2533,1.1822,-0.4202,0.0019,nothing
-0.2576,1.1824,-0.4202,-0.0024,nothing
-0.2619,1.1824,-0.4202,-0.0067,nothing
-0.2662,1.1825,-0.4258,-0.0041,left_engine
-0.2705,1.1827,-0.4306,-0.0017,left_engine
-0.2749,1.1827,-0.4306,-0.0061,nothing
-0.2792,1.1826,-0.4306,-0.0104,nothing
-0.2836,1.1824,-0.4307,-0.0147,nothing
-0.2879,1.1820,-0.4259,-0.0263,right_engine
-0.2922,1.1814,-0.4228,-0.0376,right_engine
-0.2964,1.1806,-0.4199,-0.0483,right_engine
-0.3007,1.1796,-0.4180,-0.0576,right_engine
-0.3049,1.1784,-0.4160,-0.0671,right_engine
-0.3091,1.1770,-0.4136,-0.0785,right_engine
-0.3133,1.1754,-0.4117,-0.0893,right_engine
-0.3174,1.1736,-0.4091,-0.1003,right_engine
-0.3216,1.1717,-0.4092,-0.1046,nothing
-0.3257,1.1696,-0.4075,-0.1168,right_engine
-0.3298,1.1673,-0.4062,-0.1287,right_engine
-0.3339,1.1647,-0.4057,-0.1405,right_engine
-0.3380,1.1619,-0.4058,-0.1503,right_engine
-0.3420,1.1590,-0.4061,-0.1624,right_engine
-0.3461,1.1558,-0.4073,-0.1745,right_engine
-0.3501,1.1524,-0.4076,-0.1788,nothing
-0.3541,1.1490,-0.4079,-0.1831,nothing
-0.3581,1.1454,-0.4100,-0.1944,right_engine
-0.3621,1.1415,-0.4134,-0.2063,right_engine
-0.3661,1.1374,-0.4171,-0.2179,right_engine
-0.3701,1.1331,-0.4213,-0.2289,right_engine
-0.3741,1.1286,-0.4246,-0.2385,right_engine
-0.3781,1.1239,-0.4250,-0.2427,nothing
-0.3820,1.1192,-0.4254,-0.2469,nothing
-0.3860,1.1142,-0.4308,-0.2569,right_engine
-0.3899,1.1090,-0.4368,-0.2661,right_engine
-0.3939,1.1035,-0.4442,-0.2750,right_engine
-0.3979,1.0979,-0.4515,-0.2833,right_engine
-0.4020,1.0920,-0.4580,-0.2909,right_engine
-0.4060,1.0859,-0.4681,-0.2996,right_engine
-0.4102,1.0796,-0.4781,-0.3074,right_engine
-0.4143,1.0731,-0.4861,-0.3145,right_engine
-0.4185,1.0664,-0.4958,-0.3209,right_engine
-0.4228,1.0594,-0.5066,-0.3273,right_engine
-0.4271,1.0522,-0.5156,-0.3325,right_engine
-0.4315,1.0448,-0.5256,-0.3372,right_engine
-0.4360,1.0372,-0.5340,-0.3412,right_engine
-0.4405,1.0294,-0.5445,-0.3454,right_engine
-0.4452,1.0214,-0.5560,-0.3486,right_engine
-0.4499,1.0132,-0.5657,-0.3506,right_engine
-0.4547,1.0048,-0.5732,-0.3526,right_engine
-0.4596,0.9963,-0.5803,-0.3547,right_engine
-0.4646,0.9876,-0.5889,-0.3556,right_engine
-0.4697,0.9787,-0.5965,-0.3559,right_engine
-0.4750,0.9697,-0.6034,-0.3557,right_engine
-0.4803,0.9606,-0.6084,-0.3550,right_engine
-0.4858,0.9513,-0.6132,-0.3548,right_engine
-0.4914,0.9420,-0.6181,-0.3518,right_engine
-0.4971,0.9325,-0.6168,-0.3556,nothing
-0.5029,0.9228,-0.6155,-0.3595,nothing
-0.5088,0.9130,-0.6140,-0.3635,nothing
-0.5148,0.9031,-0.6125,-0.3676,nothing
-0.5209,0.8931,-0.6110,-0.3718,nothing
-0.5271,0.8830,-0.6095,-0.3761,nothing
-0.5334,0.8728,-0.6079,-0.3805,nothing
-0.5398,0.8626,-0.6064,-0.3851,nothing
-0.5463,0.8523,-0.6050,-0.3897,nothing
-0.5529,0.8420,-0.6036,-0.3944,nothing
-0.5596,0.8317,-0.6023,-0.3993,nothing
-0.5663,0.8214,-0.6011,-0.4042,nothing
-0.5736,0.8122,-0.6489,-0.3596,main_engine
-0.5812,0.8037,-0.6720,-0.3387,main_engine
-0.5894,0.7965,-0.7246,-0.2875,main_engine
-0.5979,0.7904,-0.7454,-0.2426,main_engine
-0.6066,0.7859,-0.7638,-0.1791,main_engine
-0.6153,0.7829,-0.7723,-0.1227,main_engine
-0.6241,0.7807,-0.7721,-0.0891,main_engine
-0.6330,0.7798,-0.7795,-0.0419,main_engine
-0.6418,0.7796,-0.7810,-0.0215,main_engine
-0.6503,0.7807,-0.7474,0.0349,main_engine
-0.6586,0.7833,-0.7318,0.0883,main_engine
-0.6668,0.7868,-0.7217,0.1261,main_engine
-0.6746,0.7913,-0.6904,0.1644,main_engine
-0.6821,0.7965,-0.6652,0.1864,main_engine
-0.6896,0.8018,-0.6752,0.1864,left_engine
-0.6971,0.8071,-0.6829,0.1859,left_engine
-0.7046,0.8126,-0.6890,0.1863,left_engine
-0.7120,0.8181,-0.6954,0.1877,left_engine
-0.7194,0.8236,-0.7020,0.1895,left_engine
-0.7268,0.8292,-0.7072,0.1911,left_engine
-0.7341,0.8348,-0.7110,0.1930,left_engine
-0.7413,0.8405,-0.7136,0.1949,left_engine
-0.7485,0.8462,-0.7157,0.1968,left_engine
-0.7557,0.8519,-0.7167,0.1981,left_engine
-0.7628,0.8576,-0.7169,0.2010,left_engine
-0.7698,0.8633,-0.7161,0.2031,left_engine
-0.7768,0.8690,-0.7151,0.2065,left_engine
-0.7837,0.8747,-0.7131,0.2080,left_engine
-0.7905,0.8804,-0.7096,0.2106,left_engine
-0.7973,0.8860,-0.7058,0.2122,left_engine
-0.8040,0.8916,-0.7063,0.2080,nothing
-0.8107,0.8970,-0.7068,0.2039,nothing
-0.8174,0.9023,-0.7072,0.1998,nothing
-0.8240,0.9074,-0.7077,0.1957,nothing
-0.8306,0.9124,-0.7081,0.1916,nothing
-0.8372,0.9173,-0.7085,0.1875,nothing
-0.8438,0.9220,-0.7089,0.1835,nothing
-0.8503,0.9266,-0.7092,0.1795,nothing
-0.8569,0.9311,-0.7095,0.1755,nothing
-0.8634,0.9354,-0.7098,0.1715,nothing
-0.8699,0.9395,-0.7100,0.1675,nothing
-0.8764,0.9435,-0.7103,0.1635,nothing
-0.8828,0.9474,-0.7104,0.1595,nothing
-0.8893,0.9511,-0.7106,0.1556,nothing
-0.8957,0.9546,-0.7107,0.1516,nothing
-0.9022,0.9580,-0.7108,0.1476,nothing
-0.9086,0.9612,-0.7108,0.1437,nothing
-0.9151,0.9643,-0.7108,0.1397,nothing
-0.9215,0.9673,-0.7108,0.1358,nothing
-0.9280,0.9700,-0.7107,0.1318,nothing
-0.9345,0.9727,-0.7106,0.1279,nothing
-0.9410,0.9751,-0.7105,0.1239,nothing
-0.9475,0.9775,-0.7103,0.1200,nothing
-0.9540,0.9797,-0.7101,0.1160,nothing
-0.9605,0.9817,-0.7098,0.1120,nothing
-0.9670,0.9836,-0.7096,0.1080,nothing
-0.9736,0.9853,-0.7093,0.1040,nothing
-0.9802,0.9869,-0.7089,0.1000,nothing
-0.9868,0.9884,-0.7086,0.0959,nothing
-0.9934,0.9898,-0.7082,0.0919,nothing
-1.0001,0.9910,-0.7078,0.0878,nothing
0.0018,1.4039,0.0906,-0.1585,nothing
0.0027,1.4002,0.0906,-0.1629,nothing
0.0036,1.3964,0.0906,-0.1672,nothing
0.0045,1.3926,0.0906,-0.1715,nothing
0.0054,1.3886,0.0906,-0.1758,nothing
0.0063,1.3846,0.0906,-0.1802,nothing
0.0072,1.3804,0.0906,-0.1845,nothing
0.0081,1.3762,0.0906,-0.1888,nothing
0.0090,1.3718,0.0906,-0.1931,nothing
0.0098,1.3674,0.0906,-0.1974,nothing
0.0107,1.3628,0.0906,-0.2018,nothing
0.0116,1.3582,0.0906,-0.2061,nothing
0.0125,1.3535,0.0906,-0.2104,nothing
0.0134,1.3486,0.0906,-0.2147,nothing
0.0143,1.3437,0.0906,-0.2190,nothing
0.0152,1.3387,0.0906,-0.2234,nothing
0.0161,1.3336,0.0906,-0.2277,nothing
0.0170,1.3283,0.0906,-0.2320,nothing
0.0178,1.3242,0.0844,-0.1824,main_engine
0.0186,1.3208,0.0817,-0.1533,main_engine
0.0194,1.3184,0.0738,-0.1073,main_engine
0.0201,1.3159,0.0738,-0.1116,nothing
0.0208,1.3133,0.0739,-0.1159,nothing
0.0215,1.3106,0.0739,-0.1203,nothing
0.0222,1.3077,0.0738,-0.1255,nothing
0.0230,1.3048,0.0738,-0.1298,nothing
0.0237,1.3018,0.0738,-0.1342,nothing
0.0244,1.2987,0.0738,-0.1385,nothing
0.0251,1.2955,0.0738,-0.1428,nothing
0.0258,1.2922,0.0738,-0.1471,nothing
0.0265,1.2888,0.0738,-0.1514,nothing
0.0273,1.2852,0.0738,-0.1558,nothing
0.0280,1.2816,0.0738,-0.1601,nothing
0.0287,1.2779,0.0738,-0.1644,nothing
0.0294,1.2742,0.0738,-0.1687,nothing
0.0301,1.2703,0.0738,-0.1731,nothing
0.0308,1.2663,0.0738,-0.1774,nothing
0.0316,1.2622,0.0738,-0.1817,nothing
0.0323,1.2580,0.0738,-0.1860,nothing
0.0330,1.2537,0.0738,-0.1903,nothing
0.0337,1.2493,0.0738,-0.1947,nothing
0.0344,1.2449,0.0738,-0.1990,nothing
0.0352,1.2403,0.0738,-0.2033,nothing
0.0359,1.2356,0.0738,-0.2076,nothing
0.0366,1.2309,0.0738,-0.2119,nothing
0.0373,1.2260,0.0738,-0.2163,nothing
0.0380,1.2210,0.0738,-0.2206,nothing
0.0387,1.2160,0.0738,-0.2249,nothing
0.0395,1.2108,0.0738,-0.2292,nothing
0.0402,1.2056,0.0738,-0.2335,nothing
0.0409,1.2002,0.0738,-0.2379,nothing
0.0416,1.1948,0.0738,-0.2422,nothing
0.0423,1.1892,0.0738,-0.2465,nothing
0.0430,1.1836,0.0738,-0.2508,nothing
0.0438,1.1779,0.0738,-0.2551,nothing
0.0445,1.1720,0.0738,-0.2595,nothing
0.0452,1.1661,0.0738,-0.2638,nothing
0.0459,1.1601,0.0738,-0.2681,nothing
0.0466,1.1539,0.0738,-0.2724,nothing
0.0473,1.1477,0.0738,-0.2767,nothing
0.0481,1.1414,0.0738,-0.2811,nothing
0.0488,1.1350,0.0738,-0.2854,nothing
0.0495,1.1285,0.0738,-0.2897,nothing
0.0502,1.1218,0.0738,-0.2940,nothing
0.0509,1.1151,0.0738,-0.2983,nothing
0.0517,1.1083,0.0738,-0.3027,nothing
0.0524,1.1014,0.0738,-0.3070,nothing
0.0531,1.0944,0.0738,-0.3113,nothing
0.0538,1.0873,0.0738,-0.3156,nothing
0.0545,1.0801,0.0738,-0.3199,nothing
0.0552,1.0728,0.0738,-0.3243,nothing
0.0560,1.0655,0.0738,-0.3286,nothing
0.0567,1.0580,0.0738,-0.3329,nothing
0.0574,1.0504,0.0738,-0.3372,nothing
0.0581,1.0427,0.0738,-0.3415,nothing
0.0588,1.0349,0.0738,-0.3459,nothing
0.0595,1.0270,0.0738,-0.3502,nothing
0.0603,1.0191,0.0738,-0.3545,nothing
0.0610,1.0110,0.0738,-0.3588,nothing
0.0617,1.0028,0.0738,-0.3631,nothing
0.0624,0.9946,0.0738,-0.3675,nothing
0.0631,0.9862,0.0738,-0.3718,nothing
0.0639,0.9778,0.0738,-0.3761,nothing
0.0646,0.9692,0.0738,-0.3804,nothing
0.0653,0.9606,0.0738,-0.3847,nothing
0.0660,0.9518,0.0738,-0.3891,nothing
0.0667,0.9430,0.0738,-0.3934,nothing
0.0674,0.9340,0.0738,-0.3977,nothing
0.0682,0.9250,0.0738,-0.4020,nothing
0.0689,0.9158,0.0738,-0.4063,nothing
0.0696,0.9066,0.0738,-0.4107,nothing
0.0703,0.8973,0.0738,-0.4150,nothing
0.0710,0.8878,0.0738,-0.4193,nothing
0.0718,0.8783,0.0738,-0.4236,nothing
0.0725,0.8687,0.0738,-0.4280,nothing
0.0732,0.8590,0.0738,-0.4323,nothing
0.0739,0.8492,0.0738,-0.4366,nothing
0.0746,0.8392,0.0738,-0.4409,nothing
0.0753,0.8292,0.0738,-0.4452,nothing
0.0761,0.8191,0.0738,-0.4496,nothing
0.0768,0.8089,0.0738,-0.4539,nothing
0.0775,0.7986,0.0738,-0.4582,nothing
0.0782,0.7882,0.0738,-0.4625,nothing
0.0789,0.7777,0.0738,-0.4668,nothing
0.0796,0.7671,0.0738,-0.4712,nothing
0.0804,0.7564,0.0738,-0.4755,nothing
0.0811,0.7456,0.0738,-0.4798,nothing
0.0818,0.7347,0.0738,-0.4841,nothing
0.0825,0.7238,0.0738,-0.4884,nothing
0.0832,0.7127,0.0738,-0.4928,nothing
0.0840,0.7015,0.0738,-0.4971,nothing
0.0847,0.6902,0.0738,-0.5014,nothing
0.0854,0.6789,0.0738,-0.5057,nothing
0.0861,0.6674,0.0738,-0.5100,nothing
0.0868,0.6558,0.0738,-0.5144,nothing
0.0875,0.6442,0.0738,-0.5187,nothing
0.0883,0.6324,0.0738,-0.5230,nothing
0.0890,0.6205,0.0738,-0.5273,nothing
0.0896,0.6093,0.0687,-0.4985,main_engine
0.0904,0.5991,0.0838,-0.4531,main_engine
0.0916,0.5898,0.1148,-0.4139,main_engine
0.0928,0.5816,0.1213,-0.3654,main_engine
0.0943,0.5744,0.1535,-0.3196,main_engine
0.0962,0.5686,0.1889,-0.2579,main_engine
0.0981,0.5641,0.1935,-0.2004,main_engine
0.1000,0.5605,0.1932,-0.1618,main_engine
0.1021,0.5575,0.2202,-0.1358,main_engine
0.1043,0.5554,0.2220,-0.0925,main_engine
0.1066,0.5546,0.2349,-0.0343,main_engine
0.1092,0.5553,0.2600,0.0273,main_engine
0.1118,0.5558,0.2600,0.0229,nothing
0.1143,0.5562,0.2600,0.0186,nothing
0.1169,0.5566,0.2600,0.0143,nothing
0.1195,0.5568,0.2600,0.0100,nothing
0.1220,0.5569,0.2600,0.0057,nothing
0.1246,0.5570,0.2600,0.0013,nothing
0.1272,0.5569,0.2600,-0.0030,nothing
0.1297,0.5568,0.2600,-0.0073,nothing
0.1323,0.5565,0.2600,-0.0116,nothing
0.1349,0.5562,0.2600,-0.0160,nothing
0.1374,0.5558,0.2600,-0.0203,nothing
0.1400,0.5552,0.2600,-0.0246,nothing
0.1426,0.5546,0.2600,-0.0289,nothing
0.1451,0.5539,0.2600,-0.0332,nothing
0.1477,0.5530,0.2600,-0.0376,nothing
0.1502,0.5521,0.2600,-0.0419,nothing
0.1528,0.5511,0.2600,-0.0462,nothing
0.1554,0.5500,0.2600,-0.0505,nothing
0.1579,0.5487,0.2600,-0.0548,nothing
0.1605,0.5474,0.2600,-0.0592,nothing
0.1631,0.5460,0.2600,-0.0635,nothing
0.1656,0.5445,0.2600,-0.0678,nothing
0.1682,0.5429,0.2600,-0.0721,nothing
0.1708,0.5412,0.2600,-0.0764,nothing
0.1733,0.5394,0.2600,-0.0808,nothing
0.1759,0.5375,0.2600,-0.0851,nothing
0.1785,0.5355,0.2600,-0.0894,nothing
0.1810,0.5334,0.2600,-0.0937,nothing
0.1836,0.5312,0.2600,-0.0981,nothing
0.1862,0.5290,0.2600,-0.1024,nothing
0.1887,0.5266,0.2600,-0.1067,nothing
0.1912,0.5241,0.2527,-0.1091,left_engine
0.1937,0.5216,0.2416,-0.1103,left_engine
0.1960,0.5191,0.2302,-0.1116,left_engine
0.1982,0.5165,0.2220,-0.1139,left_engine
0.2004,0.5139,0.2112,-0.1158,left_engine
0.2025,0.5112,0.2030,-0.1185,left_engine
0.2046,0.5084,0.1920,-0.1198,left_engine
0.2065,0.5056,0.1819,-0.1222,left_engine
0.2084,0.5027,0.1736,-0.1245,left_engine
0.2102,0.4998,0.1640,-0.1264,left_engine
0.2119,0.4968,0.1534,-0.1282,left_engine
0.2136,0.4938,0.1434,-0.1306,left_engine
0.2152,0.4907,0.1434,-0.1350,nothing
0.2169,0.4875,0.1434,-0.1393,nothing
0.2185,0.4842,0.1434,-0.1437,nothing
0.2202,0.4808,0.1434,-0.1481,nothing
0.2219,0.4773,0.1434,-0.1524,nothing
0.2235,0.4738,0.1434,-0.1568,nothing
0.2252,0.4701,0.1434,-0.1611,nothing
0.2268,0.4664,0.1433,-0.1655,nothing
0.2285,0.4625,0.1433,-0.1699,nothing
0.2301,0.4586,0.1433,-0.1742,nothing
0.2318,0.4546,0.1433,-0.1786,nothing
0.2335,0.4504,0.1555,-0.1830,right_engine
0.2353,0.4462,0.1638,-0.1869,right_engine
0.2372,0.4419,0.1738,-0.1915,right_engine
0.2392,0.4376,0.1847,-0.1950,right_engine
0.2413,0.4331,0.1947,-0.1984,right_engine
0.2434,0.4286,0.2028,-0.2025,right_engine
0.2456,0.4239,0.2146,-0.2063,right_engine
0.2479,0.4192,0.2146,-0.2107,nothing
0.2501,0.4144,0.2146,-0.2150,nothing
0.2523,0.4095,0.2146,-0.2193,nothing
0.2545,0.4044,0.2146,-0.2236,nothing
0.2568,0.3993,0.2146,-0.2280,nothing
0.2590,0.3941,0.2231,-0.2315,right_engine
0.2614,0.3889,0.2310,-0.2353,right_engine
0.2638,0.3835,0.2409,-0.2387,right_engine
0.2663,0.3780,0.2496,-0.2417,right_engine
0.2689,0.3725,0.2596,-0.2447,right_engine
0.2716,0.3670,0.2676,-0.2480,right_engine
0.2743,0.3613,0.2786,-0.2511,right_engine
0.2770,0.3555,0.2786,-0.2554,nothing
0.2797,0.3497,0.2786,-0.2598,nothing
0.2825,0.3437,0.2786,-0.2641,nothing
0.2853,0.3377,0.2880,-0.2673,right_engine
0.2882,0.3316,0.2990,-0.2704,right_engine
0.2911,0.3254,0.3078,-0.2742,right_engine
0.2942,0.3191,0.3172,-0.2785,right_engine
0.2973,0.3128,0.3264,-0.2819,right_engine
0.3004,0.3063,0.3264,-0.2863,nothing
0.3035,0.2998,0.3264,-0.2906,nothing
0.3066,0.2931,0.3264,-0.2950,nothing
0.3097,0.2864,0.3264,-0.2993,nothing
0.3128,0.2796,0.3264,-0.3036,nothing
0.3160,0.2726,0.3264,-0.3080,nothing
0.3191,0.2656,0.3264,-0.3123,nothing
0.3222,0.2585,0.3264,-0.3167,nothing
0.3252,0.2520,0.3212,-0.2879,main_engine
0.3284,0.2467,0.3370,-0.2396,main_engine
0.3317,0.2426,0.3457,-0.1828,main_engine
0.3351,0.2384,0.3457,-0.1871,nothing
0.3384,0.2341,0.3457,-0.1915,nothing
0.3417,0.2297,0.3457,-0.1958,nothing
0.3450,0.2253,0.3457,-0.2001,nothing
0.3485,0.2217,0.3715,-0.1604,main_engine
0.3524,0.2195,0.3991,-0.0982,main_engine
0.3565,0.2185,0.4230,-0.0482,main_engine
0.3609,0.2186,0.4563,0.0009,main_engine
0.3654,0.2199,0.4605,0.0560,main_engine
0.3699,0.2211,0.4605,0.0517,nothing
0.3743,0.2222,0.4605,0.0474,nothing
0.3788,0.2232,0.4605,0.0430,nothing
0.3833,0.2241,0.4605,0.0387,nothing
0.3878,0.2250,0.4605,0.0344,nothing
0.3922,0.2257,0.4605,0.0300,nothing
0.3967,0.2264,0.4605,0.0257,nothing
0.4012,0.2269,0.4604,0.0214,nothing
0.4057,0.2274,0.4604,0.0170,nothing
0.4101,0.2277,0.4604,0.0127,nothing
0.4146,0.2280,0.4604,0.0084,nothing
0.4191,0.2282,0.4604,0.0040,nothing
0.4236,0.2282,0.4604,-0.0003,nothing
0.4281,0.2282,0.4604,-0.0046,nothing
0.4325,0.2281,0.4604,-0.0090,nothing
0.4370,0.2279,0.4604,-0.0133,nothing
0.4415,0.2276,0.4604,-0.0176,nothing
0.4461,0.2271,0.4707,-0.0251,right_engine
0.4507,0.2265,0.4785,-0.0322,right_engine
0.4554,0.2258,0.4883,-0.0402,right_engine
0.4601,0.2249,0.4951,-0.0468,right_engine
0.4650,0.2239,0.5035,-0.0539,right_engine
0.4699,0.2227,0.5119,-0.0619,right_engine
0.4748,0.2214,0.5118,-0.0663,nothing
0.4797,0.2200,0.5118,-0.0706,nothing
0.4846,0.2186,0.5117,-0.0750,nothing
0.4895,0.2171,0.5117,-0.0794,nothing
0.4944,0.2154,0.5116,-0.0837,nothing
0.4993,0.2138,0.5058,-0.0843,left_engine
0.5041,0.2121,0.4982,-0.0835,left_engine
0.5089,0.2104,0.4910,-0.0838,left_engine
0.5136,0.2087,0.4855,-0.0839,left_engine
0.5183,0.2070,0.4794,-0.0843,left_engine
0.5229,0.2053,0.4712,-0.0828,left_engine
0.5275,0.2036,0.4636,-0.0813,left_engine
0.5320,0.2019,0.4568,-0.0806,left_engine
0.5365,0.2001,0.4501,-0.0799,left_engine
0.5409,0.1984,0.4431,-0.0785,left_engine
0.5452,0.1967,0.4378,-0.0787,left_engine
0.5496,0.1949,0.4323,-0.0787,left_engine
0.5538,0.1931,0.4255,-0.0772,left_engine
0.5581,0.1913,0.4176,-0.0752,left_engine
0.5622,0.1896,0.4098,-0.0732,left_engine
0.5664,0.1877,0.4098,-0.0775,nothing
0.5705,0.1858,0.4098,-0.0818,nothing
0.5747,0.1838,0.4098,-0.0861,nothing
0.5788,0.1817,0.4034,-0.0863,left_engine
0.5829,0.1796,0.3972,-0.0858,left_engine
0.5869,0.1775,0.3923,-0.0862,left_engine
0.5909,0.1754,0.3854,-0.0857,left_engine
0.5948,0.1733,0.3786,-0.0864,left_engine
0.5987,0.1711,0.3697,-0.0853,left_engine
0.6025,0.1690,0.3638,-0.0859,left_engine
0.6063,0.1668,0.3572,-0.0870,left_engine
0.6100,0.1646,0.3506,-0.0875,left_engine
0.6137,0.1623,0.3506,-0.0919,nothing
0.6174,0.1598,0.3505,-0.0963,nothing
0.6212,0.1574,0.3504,-0.1006,nothing
0.6249,0.1548,0.3504,-0.1050,nothing
0.6287,0.1521,0.3503,-0.1094,nothing
0.6324,0.1494,0.3503,-0.1138,nothing
0.6362,0.1465,0.3503,-0.1181,nothing
0.6400,0.1435,0.3598,-0.1260,right_engine
0.6439,0.1404,0.3697,-0.1336,right_engine
0.6479,0.1371,0.3791,-0.1403,right_engine
0.6519,0.1337,0.3902,-0.1476,right_engine
0.6561,0.1301,0.3981,-0.1544,right_engine
0.6603,0.1264,0.4066,-0.1603,right_engine
0.6646,0.1226,0.4152,-0.1665,right_engine
0.6689,0.1187,0.4261,-0.1732,right_engine
0.6734,0.1146,0.4366,-0.1795,right_engine
0.6777,0.1105,0.4267,-0.1815,left_engine
0.6820,0.1063,0.4169,-0.1837,left_engine
0.6862,0.1020,0.4060,-0.1864,left_engine
0.6903,0.0977,0.3958,-0.1891,left_engine
0.6944,0.0933,0.3874,-0.1918,left_engine
0.6984,0.0889,0.3874,-0.1962,nothing
0.7025,0.0843,0.3874,-0.2005,nothing
0.7066,0.0796,0.3874,-0.2049,nothing
0.7107,0.0749,0.3982,-0.2100,right_engine
0.7149,0.0700,0.4057,-0.2148,right_engine
0.7192,0.0650,0.4146,-0.2197,right_engine
0.7236,0.0599,0.4260,-0.2253,right_engine
0.7280,0.0547,0.4366,-0.2301,right_engine
0.7325,0.0494,0.4449,-0.2352,right_engine
0.7371,0.0440,0.4556,-0.2398,right_engine
0.7417,0.0385,0.4556,-0.2441,nothing
0.7463,0.0329,0.4556,-0.2484,nothing
0.7509,0.0273,0.4556,-0.2527,nothing
0.7555,0.0215,0.4556,-0.2571,nothing
0.7601,0.0156,0.4556,-0.2614,nothing
0.7647,0.0096,0.4556,-0.2657,nothing
0.7693,0.0035,0.4556,-0.2700,nothing
0.7739,-0.0019,0.4558,-0.2417,main_engine
0.7787,-0.0065,0.4673,-0.2024,main_engine
0.7833,-0.0104,0.4577,-0.1741,main_engine
0.7881,-0.0135,0.4725,-0.1380,main_engine
0.7930,-0.0152,0.4891,-0.0755,main_engine
0.7980,-0.0170,0.4891,-0.0798,nothing
0.8029,-0.0189,0.4891,-0.0842,nothing
0.8078,-0.0209,0.4891,-0.0885,nothing
0.8128,-0.0230,0.4891,-0.0928,nothing
0.8177,-0.0252,0.4891,-0.0971,nothing
0.8227,-0.0275,0.4891,-0.1015,nothing
0.8276,-0.0299,0.4891,-0.1058,nothing
0.8326,-0.0323,0.4891,-0.1101,nothing
0.8375,-0.0349,0.4891,-0.1144,nothing
0.8425,-0.0376,0.4891,-0.1187,nothing
0.8474,-0.0403,0.4891,-0.1231,nothing
0.8523,-0.0432,0.4891,-0.1274,nothing
0.8573,-0.0462,0.4891,-0.1317,nothing
0.8622,-0.0492,0.4891,-0.1360,nothing
0.8672,-0.0524,0.4891,-0.1404,nothing
0.8721,-0.0556,0.4891,-0.1447,nothing
0.8771,-0.0590,0.4891,-0.1490,nothing
0.8818,-0.0619,0.4879,-0.1270,nothing
0.8865,-0.0643,0.4977,-0.1102,right_engine
0.8912,-0.0669,0.5073,-0.1158,right_engine
0.8961,-0.0696,0.5195,-0.1205,right_engine
0.9010,-0.0724,0.5298,-0.1251,right_engine
0.9060,-0.0752,0.5387,-0.1302,right_engine
0.9110,-0.0782,0.5386,-0.1346,nothing
0.9160,-0.0812,0.5386,-0.1390,nothing
0.9210,-0.0843,0.5386,-0.1435,nothing
0.9260,-0.0875,0.5385,-0.1479,nothing
0.9310,-0.0907,0.5385,-0.1524,nothing
0.9360,-0.0940,0.5384,-0.1568,nothing
0.9410,-0.0974,0.5383,-0.1613,nothing
0.9461,-0.1009,0.5383,-0.1657,nothing
0.9511,-0.1045,0.5382,-0.1701,nothing
0.9561,-0.1081,0.5381,-0.1746,nothing
0.9612,-0.1118,0.5380,-0.1790,nothing
0.9662,-0.1156,0.5379,-0.1834,nothing
0.9713,-0.1195,0.5378,-0.1878,nothing
0.9764,-0.1235,0.5377,-0.1923,nothing
0.9814,-0.1275,0.5376,-0.1967,nothing
0.9865,-0.1316,0.5375,-0.2011,nothing
0.9916,-0.1358,0.5373,-0.2055,nothing
0.9967,-0.1401,0.5372,-0.2099,nothing
1.0018,-0.1445,0.5370,-0.2143,nothing
0.0137,1.4188,0.6911,0.1725,nothing
0.0205,1.4225,0.6911,0.1682,nothing
0.0273,1.4262,0.6911,0.1639,nothing
0.0342,1.4298,0.6911,0.1596,nothing
0.0410,1.4333,0.6912,0.1552,nothing
0.0478,1.4367,0.6912,0.1509,nothing
0.0547,1.4400,0.6912,0.1466,nothing
0.0615,1.4432,0.6912,0.1423,nothing
0.0683,1.4464,0.6913,0.1379,nothing
0.0752,1.4494,0.6913,0.1336,nothing
0.0820,1.4523,0.6913,0.1293,nothing
0.0888,1.4551,0.6913,0.1249,nothing
0.0957,1.4578,0.6913,0.1206,nothing
0.1025,1.4605,0.6914,0.1163,nothing
0.1093,1.4630,0.6914,0.1120,nothing
0.1162,1.4654,0.6914,0.1076,nothing
0.1230,1.4678,0.6914,0.1033,nothing
0.1299,1.4700,0.6914,0.0990,nothing
0.1367,1.4722,0.6915,0.0946,nothing
0.1435,1.4742,0.6915,0.0903,nothing
0.1504,1.4762,0.6915,0.0860,nothing
0.1572,1.4780,0.6915,0.0817,nothing
0.1640,1.4798,0.6915,0.0773,nothing
0.1709,1.4815,0.6916,0.0730,nothing
0.1777,1.4830,0.6912,0.0682,nothing
0.1846,1.4845,0.6913,0.0634,nothing
0.1914,1.4858,0.6913,0.0591,nothing
0.1982,1.4871,0.6913,0.0548,nothing
0.2051,1.4882,0.6913,0.0504,nothing
0.2119,1.4893,0.6913,0.0461,nothing
0.2187,1.4903,0.6913,0.0418,nothing
0.2256,1.4911,0.6913,0.0375,nothing
0.2324,1.4919,0.6913,0.0331,nothing
0.2393,1.4926,0.6913,0.0288,nothing
0.2461,1.4932,0.6913,0.0245,nothing
0.2529,1.4937,0.6913,0.0202,nothing
0.2598,1.4941,0.6913,0.0158,nothing
0.2666,1.4944,0.6913,0.0115,nothing
0.2734,1.4945,0.6913,0.0072,nothing
0.2803,1.4946,0.6913,0.0029,nothing
0.2871,1.4947,0.6913,-0.0015,nothing
0.2940,1.4946,0.6913,-0.0058,nothing
0.3008,1.4944,0.6913,-0.0101,nothing
0.3076,1.4941,0.6913,-0.0144,nothing
0.3145,1.4937,0.6913,-0.0188,nothing
0.3213,1.4932,0.6913,-0.0231,nothing
0.3282,1.4927,0.6913,-0.0274,nothing
0.3350,1.4920,0.6913,-0.0317,nothing
0.3418,1.4912,0.6913,-0.0361,nothing
0.3487,1.4903,0.6913,-0.0404,nothing
0.3555,1.4894,0.6913,-0.0447,nothing
0.3624,1.4883,0.6913,-0.0490,nothing
0.3692,1.4872,0.6913,-0.0534,nothing
0.3760,1.4859,0.6912,-0.0577,nothing
0.3829,1.4846,0.6912,-0.0620,nothing
0.3897,1.4831,0.6912,-0.0663,nothing
0.3966,1.4816,0.6912,-0.0707,nothing
0.4034,1.4800,0.6912,-0.0750,nothing
0.4102,1.4782,0.6912,-0.0793,nothing
0.4171,1.4764,0.6912,-0.0836,nothing
0.4239,1.4745,0.6912,-0.0880,nothing
0.4308,1.4725,0.6912,-0.0923,nothing
0.4376,1.4703,0.6912,-0.0966,nothing
0.4445,1.4681,0.6912,-0.1009,nothing
0.4513,1.4658,0.6912,-0.1053,nothing
0.4582,1.4634,0.6912,-0.1096,nothing
0.4650,1.4609,0.6912,-0.1139,nothing
0.4718,1.4583,0.6912,-0.1182,nothing
0.4787,1.4556,0.6912,-0.1226,nothing
0.4855,1.4528,0.6912,-0.1269,nothing
0.4924,1.4499,0.6912,-0.1312,nothing
0.4992,1.4469,0.6912,-0.1355,nothing
0.5061,1.4438,0.6912,-0.1398,nothing
0.5129,1.4407,0.6912,-0.1442,nothing
0.5198,1.4374,0.6912,-0.1485,nothing
0.5266,1.4340,0.6912,-0.1528,nothing
0.5335,1.4305,0.6912,-0.1571,nothing
0.5403,1.4270,0.6912,-0.1615,nothing
0.5471,1.4233,0.6912,-0.1658,nothing
0.5540,1.4196,0.6912,-0.1701,nothing
0.5608,1.4157,0.6911,-0.1744,nothing
0.5677,1.4117,0.6911,-0.1788,nothing
0.5745,1.4077,0.6911,-0.1831,nothing
0.5814,1.4036,0.6911,-0.1874,nothing
0.5882,1.3993,0.6911,-0.1917,nothing
0.5951,1.3950,0.6911,-0.1961,nothing
0.6019,1.3905,0.6911,-0.2004,nothing
0.6088,1.3860,0.6911,-0.2047,nothing
0.6156,1.3814,0.6911,-0.2090,nothing
0.6225,1.3767,0.6911,-0.2134,nothing
0.6293,1.3718,0.6911,-0.2177,nothing
0.6362,1.3669,0.6911,-0.2220,nothing
0.6431,1.3619,0.6911,-0.2263,nothing
0.6499,1.3568,0.6911,-0.2307,nothing
0.6568,1.3515,0.6978,-0.2386,right_engine
0.6638,1.3461,0.7050,-0.2474,right_engine
0.6708,1.3404,0.7128,-0.2567,right_engine
0.6778,1.3347,0.7128,-0.2610,nothing
0.6848,1.3289,0.7128,-0.2654,nothing
0.6919,1.3230,0.7127,-0.2697,nothing
0.6989,1.3170,0.7127,-0.2740,nothing
0.7059,1.3110,0.7050,-0.2727,left_engine
0.7128,1.3050,0.6991,-0.2727,left_engine
0.7197,1.2989,0.6913,-0.2710,left_engine
0.7265,1.2929,0.6835,-0.2693,left_engine
0.7332,1.2869,0.6782,-0.2690,left_engine
0.7399,1.2809,0.6705,-0.2674,left_engine
0.7466,1.2748,0.6645,-0.2663,left_engine
0.7532,1.2688,0.6561,-0.2649,left_engine
0.7597,1.2628,0.6478,-0.2635,left_engine
0.7662,1.2568,0.6397,-0.2625,left_engine
0.7726,1.2507,0.6327,-0.2613,left_engine
0.7790,1.2447,0.6251,-0.2596,left_engine
0.7853,1.2387,0.6179,-0.2595,left_engine
0.7916,1.2326,0.6111,-0.2597,left_engine
0.7978,1.2265,0.6051,-0.2598,left_engine
0.8039,1.2205,0.5979,-0.2597,left_engine
0.8101,1.2143,0.5916,-0.2607,left_engine
0.8161,1.2082,0.5824,-0.2606,left_engine
0.8221,1.2020,0.5732,-0.2606,left_engine
0.8280,1.1959,0.5635,-0.2608,left_engine
0.8339,1.1897,0.5536,-0.2610,left_engine
0.8396,1.1835,0.5446,-0.2621,left_engine
0.8454,1.1772,0.5445,-0.2666,nothing
0.8512,1.1709,0.5444,-0.2710,nothing
0.8570,1.1644,0.5443,-0.2754,nothing
0.8628,1.1579,0.5443,-0.2799,nothing
0.8686,1.1513,0.5442,-0.2843,nothing
0.8744,1.1446,0.5441,-0.2887,nothing
0.8802,1.1379,0.5441,-0.2932,nothing
0.8861,1.1310,0.5440,-0.2976,nothing
0.8919,1.1241,0.5440,-0.3021,nothing
0.8977,1.1171,0.5439,-0.3065,nothing
0.9035,1.1101,0.5439,-0.3109,nothing
0.9094,1.1029,0.5439,-0.3154,nothing
0.9152,1.0957,0.5439,-0.3198,nothing
0.9210,1.0884,0.5439,-0.3243,nothing
0.9268,1.0810,0.5439,-0.3287,nothing
0.9327,1.0736,0.5439,-0.3332,nothing
0.9385,1.0660,0.5439,-0.3376,nothing
0.9443,1.0584,0.5365,-0.3427,left_engine
0.9499,1.0507,0.5257,-0.3483,left_engine
0.9555,1.0429,0.5185,-0.3542,left_engine
0.9611,1.0350,0.5092,-0.3608,left_engine
0.9666,1.0270,0.5092,-0.3653,nothing
0.9718,1.0200,0.4790,-0.3194,main_engine
0.9769,1.0141,0.4675,-0.2768,main_engine
0.9817,1.0093,0.4376,-0.2263,main_engine
0.9862,1.0056,0.4043,-0.1801,main_engine
0.9904,1.0022,0.3784,-0.1657,main_engine
0.9944,0.9993,0.3613,-0.1487,main_engine
0.9978,0.9973,0.3068,-0.1076,main_engine
1.0010,0.9957,0.2766,-0.0905,main_engine
0.0080,1.4312,0.4050,0.4492,nothing
0.0120,1.4412,0.4050,0.4449,nothing
0.0160,1.4511,0.4050,0.4406,nothing
0.0200,1.4610,0.4050,0.4363,nothing
0.0240,1.4707,0.4051,0.4320,nothing
0.0280,1.4803,0.4051,0.4276,nothing
0.0320,1.4898,0.4051,0.4233,nothing
0.0360,1.4993,0.4051,0.4190,nothing
0.0400,1.5086,0.4051,0.4147,nothing
0.0441,1.5178,0.4051,0.4104,nothing
0.0481,1.5270,0.4051,0.4060,nothing
0.0521,1.5360,0.4051,0.4017,nothing
0.0561,1.5450,0.4052,0.3974,nothing
0.0601,1.5538,0.4052,0.3931,nothing
0.0641,1.5626,0.4052,0.3887,nothing
0.0681,1.5712,0.4052,0.3844,nothing
0.0721,1.5798,0.4052,0.3801,nothing
0.0761,1.5882,0.4052,0.3758,nothing
0.0801,1.5966,0.4052,0.3714,nothing
0.0841,1.6049,0.4052,0.3671,nothing
0.0881,1.6130,0.4053,0.3628,nothing
0.0921,1.6211,0.4053,0.3585,nothing
0.0961,1.6291,0.4053,0.3541,nothing
0.1001,1.6370,0.4053,0.3498,nothing
0.1041,1.6447,0.4051,0.3445,nothing
0.1082,1.6524,0.4051,0.3402,nothing
0.1122,1.6599,0.4051,0.3359,nothing
0.1162,1.6674,0.4051,0.3316,nothing
0.1202,1.6748,0.4051,0.3273,nothing
0.1242,1.6821,0.4051,0.3229,nothing
0.1282,1.6892,0.4051,0.3186,nothing
0.1322,1.6963,0.4051,0.3143,nothing
0.1362,1.7033,0.4051,0.3100,nothing
0.1402,1.7102,0.4051,0.3056,nothing
0.1442,1.7170,0.4051,0.3013,nothing
0.1482,1.7237,0.4051,0.2970,nothing
0.1522,1.7303,0.4051,0.2927,nothing
0.1562,1.7368,0.4051,0.2884,nothing
0.1602,1.7432,0.4051,0.2840,nothing
0.1642,1.7495,0.4051,0.2797,nothing
0.1682,1.7557,0.4051,0.2754,nothing
0.1723,1.7618,0.4051,0.2711,nothing
0.1763,1.7678,0.4051,0.2668,nothing
0.1803,1.7737,0.4051,0.2624,nothing
0.1843,1.7796,0.4051,0.2581,nothing
0.1883,1.7853,0.4051,0.2538,nothing
0.1923,1.7909,0.4051,0.2495,nothing
0.1963,1.7964,0.4051,0.2451,nothing
0.2003,1.8019,0.4051,0.2408,nothing
0.2043,1.8072,0.4051,0.2365,nothing
0.2083,1.8125,0.4051,0.2322,nothing
0.2123,1.8176,0.4051,0.2279,nothing
0.2163,1.8226,0.4051,0.2235,nothing
0.2203,1.8276,0.4051,0.2192,nothing
0.2243,1.8324,0.4051,0.2149,nothing
0.2283,1.8372,0.4051,0.2106,nothing
0.2324,1.8419,0.4051,0.2063,nothing
0.2364,1.8464,0.4051,0.2019,nothing
0.2404,1.8509,0.4051,0.1976,nothing
0.2444,1.8553,0.4051,0.1933,nothing
0.2484,1.8595,0.4051,0.1890,nothing
0.2524,1.8637,0.4051,0.1846,nothing
0.2564,1.8678,0.4051,0.1803,nothing
0.2604,1.8718,0.4051,0.1760,nothing
0.2644,1.8756,0.4051,0.1717,nothing
0.2684,1.8794,0.4051,0.1674,nothing
0.2724,1.8831,0.4051,0.1630,nothing
0.2764,1.8867,0.4051,0.1587,nothing
0.2804,1.8902,0.4051,0.1544,nothing
0.2845,1.8936,0.4051,0.1501,nothing
0.2885,1.8969,0.4051,0.1457,nothing
0.2925,1.9001,0.4051,0.1414,nothing
0.2965,1.9032,0.4051,0.1371,nothing
0.3005,1.9062,0.4051,0.1328,nothing
0.3045,1.9091,0.4051,0.1285,nothing
0.3085,1.9119,0.4051,0.1241,nothing
0.3125,1.9147,0.4051,0.1198,nothing
0.3165,1.9173,0.4051,0.1155,nothing
0.3205,1.9198,0.4051,0.1112,nothing
0.3245,1.9222,0.4051,0.1069,nothing
0.3285,1.9246,0.4051,0.1025,nothing
0.3325,1.9268,0.4051,0.0982,nothing
0.3366,1.9290,0.4051,0.0939,nothing
0.3406,1.9310,0.4051,0.0896,nothing
0.3446,1.9329,0.4051,0.0852,nothing
0.3486,1.9348,0.4051,0.0809,nothing
0.3526,1.9365,0.4051,0.0766,nothing
0.3566,1.9382,0.4051,0.0723,nothing
0.3606,1.9397,0.4051,0.0680,nothing
0.3646,1.9412,0.4051,0.0636,nothing
0.3686,1.9426,0.4051,0.0593,nothing
0.3726,1.9438,0.4051,0.0550,nothing
0.3766,1.9450,0.4051,0.0507,nothing
0.3807,1.9461,0.4051,0.0464,nothing
0.3847,1.9470,0.4051,0.0420,nothing
0.3887,1.9479,0.4051,0.0377,nothing
0.3927,1.9487,0.4051,0.0334,nothing
0.3967,1.9494,0.4051,0.0291,nothing
0.4007,1.9500,0.4051,0.0247,nothing
0.4047,1.9505,0.4051,0.0204,nothing
0.4087,1.9509,0.4051,0.0161,nothing
0.4127,1.9511,0.4051,0.0118,nothing
0.4167,1.9513,0.4051,0.0075,nothing
0.4208,1.9514,0.4051,0.0031,nothing
0.4248,1.9515,0.4051,-0.0012,nothing
0.4288,1.9514,0.4051,-0.0055,nothing
0.4328,1.9512,0.4051,-0.0098,nothing
0.4368,1.9509,0.4051,-0.0141,nothing
0.4408,1.9505,0.4051,-0.0185,nothing
0.4448,1.9500,0.4051,-0.0228,nothing
0.4488,1.9494,0.4051,-0.0271,nothing
0.4528,1.9488,0.4051,-0.0314,nothing
0.4568,1.9480,0.4051,-0.0358,nothing
0.4609,1.9471,0.4051,-0.0401,nothing
0.4649,1.9462,0.4051,-0.0444,nothing
0.4689,1.9451,0.4051,-0.0487,nothing
0.4729,1.9439,0.4051,-0.0530,nothing
0.4769,1.9427,0.4051,-0.0574,nothing
0.4809,1.9413,0.4051,-0.0617,nothing
0.4849,1.9399,0.4051,-0.0660,nothing
0.4889,1.9383,0.4051,-0.0703,nothing
0.4929,1.9367,0.4051,-0.0747,nothing
0.4970,1.9350,0.4051,-0.0790,nothing
0.5010,1.9331,0.4051,-0.0833,nothing
0.5050,1.9312,0.4051,-0.0876,nothing
0.5090,1.9292,0.4051,-0.0919,nothing
0.5130,1.9270,0.4051,-0.0963,nothing
0.5170,1.9248,0.4051,-0.1006,nothing
0.5210,1.9225,0.4051,-0.1049,nothing
0.5250,1.9201,0.4051,-0.1092,nothing
0.5291,1.9175,0.4051,-0.1135,nothing
0.5331,1.9149,0.4051,-0.1179,nothing
0.5371,1.9122,0.4050,-0.1222,nothing
0.5411,1.9094,0.4050,-0.1265,nothing
0.5451,1.9065,0.4050,-0.1308,nothing
0.5491,1.9035,0.4050,-0.1352,nothing
0.5531,1.9004,0.4050,-0.1395,nothing
0.5572,1.8972,0.4050,-0.1438,nothing
0.5612,1.8939,0.4050,-0.1481,nothing
0.5652,1.8905,0.4050,-0.1524,nothing
0.5692,1.8871,0.4050,-0.1568,nothing
0.5732,1.8835,0.4050,-0.1611,nothing
0.5772,1.8798,0.4050,-0.1654,nothing
0.5812,1.8760,0.4050,-0.1697,nothing
0.5852,1.8721,0.4050,-0.1740,nothing
0.5893,1.8682,0.4050,-0.1784,nothing
0.5933,1.8641,0.4050,-0.1827,nothing
0.5973,1.8599,0.4050,-0.1870,nothing
0.6013,1.8557,0.4050,-0.1913,nothing
0.6053,1.8513,0.4050,-0.1956,nothing
0.6093,1.8469,0.4050,-0.2000,nothing
0.6133,1.8423,0.4050,-0.2043,nothing
0.6174,1.8377,0.4050,-0.2086,nothing
0.6214,1.8329,0.4050,-0.2129,nothing
0.6254,1.8281,0.4050,-0.2173,nothing
0.6294,1.8231,0.4050,-0.2216,nothing
0.6334,1.8181,0.4050,-0.2259,nothing
0.6374,1.8130,0.4050,-0.2302,nothing
0.6415,1.8077,0.4050,-0.2345,nothing
0.6455,1.8024,0.4050,-0.2389,nothing
0.6495,1.7970,0.4050,-0.2432,nothing
0.6535,1.7914,0.4050,-0.2475,nothing
0.6575,1.7858,0.4050,-0.2518,nothing
0.6615,1.7801,0.4050,-0.2561,nothing
0.6656,1.7743,0.4050,-0.2605,nothing
0.6696,1.7684,0.4050,-0.2648,nothing
0.6736,1.7624,0.4050,-0.2691,nothing
0.6776,1.7563,0.4050,-0.2734,nothing
0.6816,1.7501,0.4050,-0.2778,nothing
0.6856,1.7438,0.4050,-0.2821,nothing
0.6897,1.7374,0.4050,-0.2864,nothing
0.6937,1.7309,0.4050,-0.2907,nothing
0.6977,1.7243,0.4050,-0.2950,nothing
0.7017,1.7176,0.4050,-0.2994,nothing
0.7057,1.7108,0.4050,-0.3037,nothing
0.7097,1.7039,0.4050,-0.3080,nothing
0.7138,1.6970,0.4050,-0.3123,nothing
0.7178,1.6899,0.4050,-0.3166,nothing
0.7218,1.6827,0.4050,-0.3210,nothing
0.7258,1.6754,0.4050,-0.3253,nothing
0.7298,1.6681,0.4050,-0.3296,nothing
0.7339,1.6606,0.4050,-0.3339,nothing
0.7379,1.6531,0.4050,-0.3383,nothing
0.7419,1.6454,0.4050,-0.3426,nothing
0.7459,1.6376,0.4050,-0.3469,nothing
0.7499,1.6298,0.4050,-0.3512,nothing
0.7539,1.6218,0.4050,-0.3555,nothing
0.7580,1.6138,0.4050,-0.3599,nothing
0.7620,1.6057,0.4050,-0.3642,nothing
0.7660,1.5974,0.4050,-0.3685,nothing
0.7700,1.5891,0.4049,-0.3728,nothing
0.7740,1.5806,0.4049,-0.3771,nothing
0.7781,1.5721,0.4049,-0.3815,nothing
0.7821,1.5635,0.4049,-0.3858,nothing
0.7861,1.5548,0.4049,-0.3901,nothing
0.7901,1.5459,0.4049,-0.3944,nothing
0.7941,1.5370,0.4049,-0.3987,nothing
0.7982,1.5280,0.4049,-0.4031,nothing
0.8022,1.5189,0.4049,-0.4074,nothing
0.8062,1.5097,0.4049,-0.4117,nothing
0.8102,1.5004,0.4049,-0.4160,nothing
0.8143,1.4910,0.4049,-0.4204,nothing
0.8183,1.4815,0.4049,-0.4247,nothing
0.8223,1.4719,0.4049,-0.4290,nothing
0.8263,1.4622,0.4049,-0.4333,nothing
0.8303,1.4524,0.4049,-0.4376,nothing
0.8344,1.4425,0.4049,-0.4420,nothing
0.8384,1.4325,0.4049,-0.4463,nothing
0.8424,1.4224,0.4049,-0.4506,nothing
0.8464,1.4123,0.4049,-0.4549,nothing
0.8505,1.4020,0.4049,-0.4592,nothing
0.8545,1.3916,0.4049,-0.4636,nothing
0.8585,1.3811,0.4049,-0.4679,nothing
0.8625,1.3706,0.4049,-0.4722,nothing
0.8665,1.3599,0.4049,-0.4765,nothing
0.8706,1.3491,0.4049,-0.4808,nothing
0.8746,1.3383,0.4049,-0.4852,nothing
0.8786,1.3273,0.4049,-0.4895,nothing
0.8826,1.3163,0.4049,-0.4938,nothing
0.8867,1.3051,0.4049,-0.4981,nothing
0.8907,1.2939,0.4049,-0.5024,nothing
0.8947,1.2825,0.4049,-0.5068,nothing
0.8987,1.2711,0.4049,-0.5111,nothing
0.9028,1.2596,0.4049,-0.5154,nothing
0.9068,1.2479,0.4049,-0.5197,nothing
0.9108,1.2362,0.4049,-0.5241,nothing
0.9148,1.2244,0.4049,-0.5284,nothing
0.9189,1.2124,0.4049,-0.5327,nothing
0.9229,1.2004,0.4049,-0.5370,nothing
0.9269,1.1883,0.4049,-0.5413,nothing
0.9309,1.1761,0.4049,-0.5457,nothing
0.9350,1.1638,0.4049,-0.5500,nothing
0.9390,1.1513,0.4049,-0.5543,nothing
0.9430,1.1388,0.4049,-0.5586,nothing
0.9470,1.1262,0.4049,-0.5629,nothing
0.9511,1.1135,0.4049,-0.5673,nothing
0.9551,1.1007,0.4049,-0.5716,nothing
0.9591,1.0878,0.4049,-0.5759,nothing
0.9631,1.0748,0.4048,-0.5802,nothing
0.9672,1.0617,0.4048,-0.5845,nothing
0.9712,1.0485,0.4048,-0.5889,nothing
0.9752,1.0353,0.4048,-0.5932,nothing
0.9793,1.0219,0.4048,-0.5975,nothing
0.9833,1.0084,0.4048,-0.6018,nothing
0.9873,0.9948,0.4048,-0.6062,nothing
0.9913,0.9812,0.4048,-0.6105,nothing
0.9954,0.9674,0.4048,-0.6148,nothing
0.9994,0.9535,0.4048,-0.6191,nothing
1.0034,0.9395,0.4048,-0.6234,nothing
-0.0000,1.4080,-0.0002,-0.0660,nothing
-0.0000,1.4064,-0.0002,-0.0703,nothing
-0.0000,1.4048,-0.0002,-0.0747,nothing
-0.0000,1.4030,-0.0002,-0.0790,nothing
-0.0000,1.4011,-0.0002,-0.0833,nothing
-0.0000,1.3991,-0.0002,-0.0876,nothing
-0.0000,1.3971,-0.0002,-0.0919,nothing
-0.0000,1.3949,-0.0002,-0.0963,nothing
-0.0000,1.3926,-0.0002,-0.1006,nothing
-0.0000,1.3903,-0.0002,-0.1049,nothing
-0.0000,1.3878,-0.0002,-0.1092,nothing
-0.0000,1.3853,-0.0002,-0.1135,nothing
-0.0000,1.3826,-0.0002,-0.1179,nothing
-0.0000,1.3799,-0.0002,-0.1222,nothing
-0.0000,1.3770,-0.0002,-0.1265,nothing
-0.0000,1.3741,-0.0002,-0.1308,nothing
-0.0000,1.3710,-0.0002,-0.1352,nothing
-0.0000,1.3679,-0.0002,-0.1395,nothing
-0.0000,1.3647,-0.0002,-0.1438,nothing
-0.0000,1.3613,-0.0002,-0.1481,nothing
-0.0000,1.3579,-0.0002,-0.1524,nothing
-0.0001,1.3544,-0.0002,-0.1568,nothing
-0.0001,1.3507,-0.0002,-0.1611,nothing
-0.0001,1.3470,-0.0002,-0.1654,nothing
-0.0001,1.3432,-0.0002,-0.1707,nothing
-0.0001,1.3392,-0.0002,-0.1750,nothing
-0.0001,1.3352,-0.0002,-0.1793,nothing
-0.0001,1.3311,-0.0002,-0.1836,nothing
-0.0001,1.3269,-0.0002,-0.1880,nothing
-0.0001,1.3225,-0.0002,-0.1923,nothing
-0.0001,1.3181,-0.0002,-0.1966,nothing
-0.0001,1.3136,-0.0002,-0.2009,nothing
-0.0001,1.3090,-0.0002,-0.2052,nothing
-0.0001,1.3042,-0.0002,-0.2096,nothing
-0.0001,1.2994,-0.0002,-0.2139,nothing
-0.0001,1.2945,-0.0002,-0.2182,nothing
-0.0001,1.2895,-0.0002,-0.2225,nothing
-0.0001,1.2844,-0.0002,-0.2268,nothing
-0.0001,1.2792,-0.0002,-0.2312,nothing
-0.0001,1.2739,-0.0002,-0.2355,nothing
-0.0001,1.2685,-0.0002,-0.2398,nothing
-0.0001,1.2630,-0.0002,-0.2441,nothing
-0.0001,1.2574,-0.0002,-0.2484,nothing
-0.0001,1.2517,-0.0002,-0.2528,nothing
-0.0001,1.2460,-0.0002,-0.2571,nothing
-0.0001,1.2401,-0.0002,-0.2614,nothing
-0.0001,1.2341,-0.0002,-0.2657,nothing
-0.0001,1.2280,-0.0002,-0.2700,nothing
-0.0001,1.2219,-0.0002,-0.2744,nothing
-0.0001,1.2156,-0.0002,-0.2787,nothing
-0.0001,1.2092,-0.0002,-0.2830,nothing
-0.0001,1.2028,-0.0002,-0.2873,nothing
-0.0001,1.1962,-0.0002,-0.2916,nothing
-0.0001,1.1895,-0.0002,-0.2960,nothing
-0.0001,1.1828,-0.0002,-0.3003,nothing
-0.0001,1.1759,-0.0002,-0.3046,nothing
-0.0001,1.1690,-0.0002,-0.3089,nothing
-0.0001,1.1619,-0.0002,-0.3132,nothing
-0.0001,1.1548,-0.0002,-0.3176,nothing
-0.0001,1.1475,-0.0002,-0.3219,nothing
-0.0001,1.1402,-0.0002,-0.3262,nothing
-0.0001,1.1328,-0.0002,-0.3305,nothing
-0.0001,1.1252,-0.0002,-0.3348,nothing
-0.0001,1.1176,-0.0002,-0.3392,nothing
-0.0001,1.1099,-0.0002,-0.3435,nothing
-0.0002,1.1020,-0.0002,-0.3478,nothing
-0.0002,1.0941,-0.0002,-0.3521,nothing
-0.0002,1.0861,-0.0002,-0.3564,nothing
-0.0002,1.0780,-0.0002,-0.3608,nothing
-0.0002,1.0698,-0.0002,-0.3651,nothing
-0.0002,1.0615,-0.0002,-0.3694,nothing
-0.0002,1.0530,-0.0002,-0.3737,nothing
-0.0002,1.0445,-0.0002,-0.3780,nothing
-0.0002,1.0359,-0.0002,-0.3824,nothing
-0.0002,1.0272,-0.0002,-0.3867,nothing
-0.0002,1.0184,-0.0002,-0.3910,nothing
-0.0002,1.0095,-0.0002,-0.3953,nothing
-0.0002,1.0005,-0.0002,-0.3996,nothing
-0.0002,0.9915,-0.0002,-0.4040,nothing
-0.0002,0.9823,-0.0002,-0.4083,nothing
-0.0002,0.9730,-0.0002,-0.4126,nothing
-0.0002,0.9636,-0.0002,-0.4169,nothing
-0.0002,0.9541,-0.0002,-0.4212,nothing
-0.0002,0.9446,-0.0002,-0.4256,nothing
-0.0002,0.9349,-0.0002,-0.4299,nothing
-0.0002,0.9251,-0.0002,-0.4342,nothing
-0.0002,0.9152,-0.0002,-0.4385,nothing
-0.0002,0.9053,-0.0002,-0.4428,nothing
-0.0002,0.8952,-0.0002,-0.4472,nothing
-0.0002,0.8851,-0.0002,-0.4515,nothing
-0.0002,0.8748,-0.0002,-0.4558,nothing
-0.0002,0.8645,-0.0002,-0.4601,nothing
-0.0002,0.8540,-0.0002,-0.4644,nothing
-0.0002,0.8435,-0.0002,-0.4688,nothing
-0.0002,0.8328,-0.0002,-0.4731,nothing
-0.0002,0.8221,-0.0002,-0.4774,nothing
-0.0002,0.8112,-0.0002,-0.4817,nothing
-0.0002,0.8003,-0.0002,-0.4860,nothing
-0.0002,0.7893,-0.0002,-0.4904,nothing
-0.0002,0.7781,-0.0002,-0.4947,nothing
-0.0002,0.7669,-0.0002,-0.4990,nothing
-0.0002,0.7556,-0.0002,-0.5033,nothing
-0.0002,0.7442,-0.0002,-0.5076,nothing
-0.0002,0.7341,0.0033,-0.4470,main_engine
-0.0001,0.7245,0.0089,-0.4270,main_engine
0.0002,0.7157,0.0259,-0.3889,main_engine
0.0004,0.7077,0.0242,-0.3571,main_engine
0.0007,0.7005,0.0313,-0.3224,main_engine
0.0011,0.6940,0.0355,-0.2888,main_engine
0.0015,0.6883,0.0361,-0.2498,main_engine
0.0020,0.6837,0.0498,-0.2066,main_engine
0.0025,0.6789,0.0498,-0.2109,nothing
0.0031,0.6741,0.0498,-0.2152,nothing
0.0036,0.6692,0.0498,-0.2195,nothing
0.0041,0.6641,0.0498,-0.2238,nothing
0.0046,0.6590,0.0498,-0.2282,nothing
0.0052,0.6538,0.0498,-0.2325,nothing
0.0057,0.6484,0.0498,-0.2368,nothing
0.0062,0.6430,0.0498,-0.2411,nothing
0.0067,0.6375,0.0498,-0.2454,nothing
0.0073,0.6319,0.0498,-0.2498,nothing
0.0078,0.6262,0.0498,-0.2541,nothing
0.0083,0.6203,0.0498,-0.2584,nothing
0.0088,0.6144,0.0498,-0.2627,nothing
0.0093,0.6084,0.0498,-0.2670,nothing
0.0099,0.6023,0.0498,-0.2714,nothing
0.0104,0.5961,0.0498,-0.2757,nothing
0.0109,0.5898,0.0498,-0.2800,nothing
0.0114,0.5834,0.0498,-0.2843,nothing
0.0120,0.5769,0.0498,-0.2887,nothing
0.0125,0.5703,0.0498,-0.2930,nothing
0.0130,0.5637,0.0498,-0.2973,nothing
0.0135,0.5569,0.0498,-0.3016,nothing
0.0141,0.5500,0.0498,-0.3059,nothing
0.0146,0.5430,0.0498,-0.3103,nothing
0.0151,0.5359,0.0498,-0.3146,nothing
0.0156,0.5288,0.0498,-0.3189,nothing
0.0161,0.5215,0.0498,-0.3232,nothing
0.0167,0.5141,0.0498,-0.3275,nothing
0.0172,0.5067,0.0498,-0.3319,nothing
0.0177,0.4991,0.0498,-0.3362,nothing
0.0182,0.4914,0.0498,-0.3405,nothing
0.0188,0.4837,0.0498,-0.3448,nothing
0.0193,0.4758,0.0498,-0.3491,nothing
0.0198,0.4679,0.0498,-0.3535,nothing
0.0203,0.4598,0.0498,-0.3578,nothing
0.0208,0.4517,0.0498,-0.3621,nothing
0.0214,0.4435,0.0498,-0.3664,nothing
0.0219,0.4351,0.0498,-0.3707,nothing
0.0224,0.4267,0.0498,-0.3751,nothing
0.0229,0.4182,0.0498,-0.3794,nothing
0.0235,0.4095,0.0498,-0.3837,nothing
0.0240,0.4008,0.0498,-0.3880,nothing
0.0245,0.3920,0.0498,-0.3923,nothing
0.0250,0.3831,0.0498,-0.3967,nothing
0.0256,0.3740,0.0498,-0.4010,nothing
0.0261,0.3649,0.0498,-0.4053,nothing
0.0266,0.3557,0.0498,-0.4096,nothing
0.0271,0.3464,0.0498,-0.4139,nothing
0.0276,0.3384,0.0448,-0.3558,main_engine
0.0279,0.3315,0.0304,-0.3055,main_engine
0.0282,0.3256,0.0214,-0.2623,main_engine
0.0282,0.3210,0.0014,-0.2071,main_engine
0.0281,0.3171,-0.0096,-0.1736,main_engine
0.0278,0.3142,-0.0357,-0.1299,main_engine
0.0272,0.3122,-0.0570,-0.0876,main_engine
0.0264,0.3116,-0.0801,-0.0288,main_engine
0.0257,0.3115,-0.0728,-0.0033,main_engine
0.0250,0.3113,-0.0728,-0.0076,nothing
0.0243,0.3110,-0.0728,-0.0119,nothing
0.0236,0.3107,-0.0728,-0.0162,nothing
0.0229,0.3102,-0.0728,-0.0206,nothing
0.0221,0.3097,-0.0728,-0.0249,nothing
0.0214,0.3090,-0.0728,-0.0292,nothing
0.0207,0.3083,-0.0728,-0.0335,nothing
0.0200,0.3074,-0.0728,-0.0378,nothing
0.0193,0.3065,-0.0728,-0.0422,nothing
0.0186,0.3054,-0.0728,-0.0465,nothing
0.0179,0.3043,-0.0728,-0.0508,nothing
0.0171,0.3031,-0.0728,-0.0551,nothing
0.0164,0.3017,-0.0728,-0.0594,nothing
0.0157,0.3003,-0.0728,-0.0638,nothing
0.0150,0.2988,-0.0728,-0.0681,nothing
0.0143,0.2971,-0.0728,-0.0724,nothing
0.0136,0.2954,-0.0728,-0.0767,nothing
0.0128,0.2936,-0.0728,-0.0810,nothing
0.0121,0.2917,-0.0728,-0.0854,nothing
0.0114,0.2897,-0.0728,-0.0897,nothing
0.0107,0.2875,-0.0728,-0.0940,nothing
0.0100,0.2853,-0.0728,-0.0983,nothing
0.0093,0.2830,-0.0728,-0.1026,nothing
0.0085,0.2806,-0.0728,-0.1070,nothing
0.0078,0.2781,-0.0728,-0.1113,nothing
0.0071,0.2755,-0.0728,-0.1156,nothing
0.0064,0.2728,-0.0728,-0.1199,nothing
0.0057,0.2700,-0.0728,-0.1242,nothing
0.0050,0.2671,-0.0728,-0.1286,nothing
0.0042,0.2642,-0.0728,-0.1329,nothing
0.0035,0.2611,-0.0728,-0.1372,nothing
0.0028,0.2579,-0.0728,-0.1415,nothing
0.0021,0.2546,-0.0728,-0.1458,nothing
0.0014,0.2512,-0.0728,-0.1502,nothing
0.0007,0.2478,-0.0728,-0.1545,nothing
-0.0000,0.2442,-0.0728,-0.1588,nothing
-0.0008,0.2405,-0.0728,-0.1631,nothing
-0.0015,0.2368,-0.0728,-0.1674,nothing
-0.0022,0.2329,-0.0728,-0.1718,nothing
-0.0029,0.2290,-0.0728,-0.1761,nothing
-0.0036,0.2249,-0.0728,-0.1804,nothing
-0.0043,0.2207,-0.0728,-0.1847,nothing
-0.0051,0.2165,-0.0728,-0.1890,nothing
-0.0058,0.2121,-0.0728,-0.1934,nothing
-0.0065,0.2077,-0.0728,-0.1977,nothing
-0.0075,0.2039,-0.1009,-0.1686,main_engine
-0.0086,0.2010,-0.1087,-0.1288,main_engine
-0.0100,0.1995,-0.1416,-0.0676,main_engine
-0.0114,0.1979,-0.1416,-0.0719,nothing
-0.0128,0.1962,-0.1416,-0.0762,nothing
-0.0142,0.1943,-0.1416,-0.0806,nothing
-0.0157,0.1924,-0.1416,-0.0849,nothing
-0.0171,0.1904,-0.1416,-0.0892,nothing
-0.0185,0.1883,-0.1416,-0.0935,nothing
-0.0199,0.1861,-0.1416,-0.0978,nothing
-0.0213,0.1838,-0.1416,-0.1022,nothing
-0.0227,0.1814,-0.1416,-0.1065,nothing
-0.0241,0.1789,-0.1416,-0.1108,nothing
-0.0256,0.1763,-0.1416,-0.1151,nothing
-0.0270,0.1737,-0.1416,-0.1194,nothing
-0.0284,0.1709,-0.1416,-0.1238,nothing
-0.0298,0.1680,-0.1416,-0.1281,nothing
-0.0312,0.1650,-0.1416,-0.1324,nothing
-0.0326,0.1619,-0.1416,-0.1367,nothing
-0.0341,0.1588,-0.1416,-0.1410,nothing
-0.0355,0.1555,-0.1416,-0.1454,nothing
-0.0369,0.1521,-0.1416,-0.1497,nothing
-0.0383,0.1487,-0.1416,-0.1540,nothing
-0.0397,0.1451,-0.1416,-0.1583,nothing
-0.0412,0.1430,-0.1500,-0.0936,main_engine
-0.0427,0.1408,-0.1500,-0.0979,nothing
-0.0442,0.1385,-0.1500,-0.1022,nothing
-0.0457,0.1361,-0.1500,-0.1065,nothing
-0.0472,0.1336,-0.1500,-0.1109,nothing
-0.0487,0.1310,-0.1500,-0.1152,nothing
-0.0502,0.1283,-0.1500,-0.1195,nothing
-0.0517,0.1256,-0.1500,-0.1238,nothing
-0.0532,0.1227,-0.1500,-0.1281,nothing
-0.0547,0.1197,-0.1500,-0.1325,nothing
-0.0562,0.1166,-0.1500,-0.1368,nothing
-0.0576,0.1134,-0.1500,-0.1411,nothing
-0.0591,0.1102,-0.1500,-0.1454,nothing
-0.0606,0.1068,-0.1500,-0.1497,nothing
-0.0621,0.1033,-0.1500,-0.1541,nothing
-0.0637,0.0998,-0.1616,-0.1597,left_engine
-0.0654,0.0961,-0.1735,-0.1653,left_engine
-0.0671,0.0922,-0.1821,-0.1709,left_engine
-0.0689,0.0883,-0.1821,-0.1752,nothing
-0.0706,0.0843,-0.1821,-0.1796,nothing
-0.0724,0.0802,-0.1821,-0.1839,nothing
-0.0741,0.0760,-0.1821,-0.1882,nothing
-0.0759,0.0717,-0.1821,-0.1925,nothing
-0.0777,0.0673,-0.1937,-0.1987,left_engine
-0.0796,0.0627,-0.2022,-0.2049,left_engine
-0.0816,0.0580,-0.2103,-0.2112,left_engine
-0.0836,0.0532,-0.2103,-0.2156,nothing
-0.0856,0.0483,-0.2103,-0.2199,nothing
-0.0875,0.0433,-0.2103,-0.2243,nothing
-0.0895,0.0383,-0.2103,-0.2286,nothing
-0.0915,0.0342,-0.1926,-0.1782,nothing
-0.0935,0.0310,-0.1844,-0.1390,nothing
-0.0957,0.0284,-0.1771,-0.1063,nothing
-0.0978,0.0262,-0.1725,-0.0892,nothing
-0.1000,0.0241,-0.1715,-0.0898,nothing
-0.1022,0.0218,-0.1696,-0.0962,nothing
-0.1044,0.0194,-0.1695,-0.1007,nothing
-0.1065,0.0170,-0.1695,-0.1052,nothing
-0.1086,0.0145,-0.1574,-0.1094,right_engine
-0.1106,0.0119,-0.1484,-0.1140,right_engine
-0.1125,0.0093,-0.1397,-0.1191,right_engine
-0.1142,0.0072,-0.1301,-0.0969,right_engine
-0.1156,0.0055,-0.1261,-0.0756,nothing
-0.1168,0.0043,-0.1221,-0.0545,nothing
-0.1178,0.0034,-0.1187,-0.0374,nothing
-0.1186,0.0027,-0.1076,-0.0311,right_engine
-0.1193,0.0019,-0.0964,-0.0332,right_engine
-0.1200,0.0010,-0.0882,-0.0385,right_engine
-0.1205,0.0000,-0.0770,-0.0429,right_engine
-0.1209,-0.0001,-0.0343,-0.0068,right_engine
-0.1211,-0.0003,-0.0198,-0.0078,right_engine
-0.1212,-0.0004,-0.0085,-0.0052,right_engine
-0.1212,-0.0003,-0.0046,0.0049,nothing
-0.1212,0.0000,-0.0015,0.0146,nothing
-0.1212,0.0005,0.0011,0.0217,nothing
-0.1211,0.0011,0.0027,0.0247,nothing
-0.1209,0.0015,0.0106,0.0197,right_engine
-0.1207,0.0019,0.0213,0.0157,right_engine
-0.1204,0.0021,0.0301,0.0111,right_engine
-0.1200,0.0023,0.0420,0.0072,right_engine
-0.1196,0.0023,0.0420,0.0029,nothing
-0.1192,0.0023,0.0420,-0.0014,nothing
-0.1188,0.0023,0.0406,-0.0007,nothing
-0.1184,0.0022,0.0403,-0.0041,nothing
-0.1180,0.0020,0.0400,-0.0074,nothing
-0.1176,0.0018,0.0397,-0.0107,nothing
-0.1171,0.0015,0.0474,-0.0120,right_engine
-0.1165,0.0012,0.0582,-0.0124,right_engine
-0.1158,0.0009,0.0657,-0.0139,right_engine
-0.1150,0.0006,0.0746,-0.0145,right_engine
-0.1143,0.0002,0.0744,-0.0178,nothing
-0.1135,-0.0003,0.0741,-0.0212,nothing
-0.1128,-0.0003,0.0692,-0.0002,nothing
-0.1121,-0.0003,0.0682,0.0001,nothing
-0.1114,-0.0003,0.0673,0.0000,nothing
-0.1108,-0.0003,0.0664,-0.0000,nothing
-0.1101,-0.0003,0.0655,-0.0000,nothing
-0.1095,-0.0003,0.0646,0.0000,nothing
-0.1088,-0.0003,0.0636,0.0000,nothing
-0.1082,-0.0003,0.0627,0.0000,nothing
-0.1076,-0.0003,0.0618,0.0000,nothing
-0.1070,-0.0003,0.0609,0.0000,nothing
-0.1064,-0.0003,0.0600,-0.0000,nothing
-0.1058,-0.0003,0.0591,-0.0000,nothing
-0.1052,-0.0003,0.0581,-0.0000,nothing
-0.1046,-0.0003,0.0572,-0.0000,nothing
-0.1041,-0.0003,0.0563,-0.0000,nothing
-0.1035,-0.0003,0.0554,-0.0000,nothing
-0.1030,-0.0003,0.0545,0.0000,nothing
-0.1024,-0.0003,0.0536,0.0000,nothing
-0.1019,-0.0003,0.0526,0.0000,nothing
-0.1014,-0.0003,0.0517,0.0000,nothing
-0.1009,-0.0003,0.0508,0.0000,nothing
-0.1004,-0.0003,0.0499,0.0000,nothing
-0.0999,-0.0003,0.0490,-0.0000,nothing
-0.0994,-0.0003,0.0481,-0.0000,nothing
-0.0989,-0.0003,0.0471,-0.0000,nothing
-0.0985,-0.0003,0.0462,-0.0000,nothing
-0.0980,-0.0003,0.0453,-0.0000,nothing
-0.0976,-0.0003,0.0444,-0.0000,nothing
-0.0971,-0.0003,0.0435,-0.0000,nothing
-0.0967,-0.0003,0.0426,-0.0000,nothing
-0.0963,-0.0003,0.0416,-0.0000,nothing
-0.0959,-0.0003,0.0407,0.0000,nothing
-0.0955,-0.0003,0.0398,0.0000,nothing
-0.0951,-0.0003,0.0389,0.0000,nothing
-0.0947,-0.0003,0.0380,0.0000,nothing
-0.0944,-0.0003,0.0371,0.0000,nothing
-0.0940,-0.0003,0.0361,0.0000,nothing
-0.0936,-0.0003,0.0352,0.0000,nothing
-0.0933,-0.0003,0.0343,0.0000,nothing
-0.0930,-0.0003,0.0334,-0.0000,nothing
-0.0926,-0.0003,0.0325,-0.0000,nothing
-0.0923,-0.0003,0.0316,-0.0000,nothing
-0.0920,-0.0003,0.0306,-0.0000,nothing
-0.0917,-0.0003,0.0297,-0.0000,nothing
-0.0914,-0.0003,0.0288,0.0000,nothing
-0.0912,-0.0003,0.0279,0.0000,nothing
-0.0909,-0.0003,0.0270,0.0000,nothing
-0.0906,-0.0003,0.0261,0.0000,nothing
-0.0904,-0.0003,0.0251,0.0000,nothing
-0.0901,-0.0003,0.0242,0.0000,nothing
-0.0899,-0.0003,0.0233,-0.0000,nothing
-0.0897,-0.0003,0.0224,-0.0000,nothing
-0.0895,-0.0003,0.0215,0.0000,nothing
-0.0893,-0.0003,0.0206,0.0000,nothing
-0.0891,-0.0003,0.0196,0.0000,nothing
-0.0889,-0.0003,0.0187,0.0000,nothing
-0.0887,-0.0003,0.0178,0.0000,nothing
-0.0885,-0.0003,0.0169,0.0000,nothing
-0.0884,-0.0003,0.0160,-0.0000,nothing
-0.0882,-0.0003,0.0151,-0.0000,nothing
-0.0881,-0.0003,0.0142,-0.0000,nothing
-0.0879,-0.0003,0.0132,-0.0000,nothing
-0.0878,-0.0003,0.0123,-0.0000,nothing
-0.0877,-0.0003,0.0114,-0.0000,nothing
-0.0876,-0.0003,0.0105,-0.0000,nothing
-0.0875,-0.0003,0.0096,-0.0000,nothing
-0.0874,-0.0003,0.0087,-0.0000,nothing
-0.0873,-0.0003,0.0077,0.0000,nothing
-0.0873,-0.0003,0.0068,0.0000,nothing
-0.0872,-0.0003,0.0059,0.0000,nothing
-0.0872,-0.0003,0.0050,0.0000,nothing
-0.0871,-0.0003,0.0041,0.0000,nothing
-0.0871,-0.0003,0.0032,0.0000,nothing
-0.0871,-0.0003,0.0022,0.0000,nothing
-0.0871,-0.0003,0.0013,0.0000,nothing
-0.0870,-0.0003,0.0004,0.0000,nothing
-0.0871,-0.0003,-0.0002,-0.0000,nothing
-0.0871,-0.0003,-0.0002,-0.0000,nothing
-0.0871,-0.0003,-0.0001,-0.0000,nothing
-0.0871,-0.0003,0.0000,0.0000,nothing
-0.0871,-0.0003,0.0000,0.0000,nothing
-0.0871,-0.0003,0.0000,0.0000,nothing
-0.0871,-0.0003,0.0000,0.0000,nothing
-0.0871,-0.0003,-0.0000,-0.0000,nothing
-0.0871,-0.0003,-0.0000,-0.0000,nothing
-0.0871,-0.0003,-0.0000,-0.0000,nothing
-0.0871,-0.0003,0.0000,0.0000,nothing
-0.0871,-0.0003,0.0000,0.0000,nothing
-0.0871,-0.0003,0.0000,0.0000,nothing
-0.0871,-0.0003,-0.0000,-0.0000,nothing
-0.0871,-0.0003,-0.0000,0.0000,nothing
-0.0871,-0.0003,-0.0000,-0.0000,nothing
-0.0871,-0.0003,0.0000,0.0000,nothing
-0.0871,-0.0003,0.0000,-0.0000,nothing
-0.0871,-0.0003,0.0000,0.0000,nothing
-0.0871,-0.0003,0.0000,0.0000,nothing
-0.0871,-0.0003,-0.0000,0.0000,nothing
-0.0871,-0.0003,-0.0000,0.0000,nothing
-0.0871,-0.0003,0.0000,0.0000,nothing
0.0006,1.4067,0.0303,-0.0954,nothing
0.0009,1.4045,0.0303,-0.0997,nothing
0.0012,1.4021,0.0303,-0.1040,nothing
0.0015,1.3997,0.0303,-0.1083,nothing
0.0018,1.3971,0.0303,-0.1127,nothing
0.0021,1.3945,0.0303,-0.1170,nothing
0.0024,1.3918,0.0303,-0.1213,nothing
0.0027,1.3890,0.0303,-0.1256,nothing
0.0030,1.3860,0.0303,-0.1299,nothing
0.0033,1.3830,0.0303,-0.1343,nothing
0.0036,1.3799,0.0303,-0.1386,nothing
0.0039,1.3767,0.0303,-0.1429,nothing
0.0042,1.3734,0.0303,-0.1472,nothing
0.0045,1.3700,0.0303,-0.1516,nothing
0.0048,1.3665,0.0303,-0.1559,nothing
0.0051,1.3628,0.0303,-0.1602,nothing
0.0054,1.3591,0.0303,-0.1645,nothing
0.0057,1.3553,0.0303,-0.1688,nothing
0.0060,1.3514,0.0303,-0.1732,nothing
0.0063,1.3475,0.0303,-0.1775,nothing
0.0066,1.3434,0.0303,-0.1818,nothing
0.0069,1.3392,0.0303,-0.1861,nothing
0.0072,1.3349,0.0303,-0.1905,nothing
0.0075,1.3305,0.0303,-0.1948,nothing
0.0078,1.3260,0.0303,-0.2001,nothing
0.0081,1.3214,0.0303,-0.2044,nothing
0.0084,1.3167,0.0303,-0.2087,nothing
0.0087,1.3119,0.0303,-0.2130,nothing
0.0090,1.3070,0.0303,-0.2173,nothing
0.0093,1.3020,0.0303,-0.2217,nothing
0.0096,1.2970,0.0303,-0.2260,nothing
0.0099,1.2918,0.0303,-0.2303,nothing
0.0102,1.2865,0.0303,-0.2346,nothing
0.0105,1.2811,0.0303,-0.2389,nothing
0.0108,1.2757,0.0303,-0.2433,nothing
0.0111,1.2701,0.0303,-0.2476,nothing
0.0114,1.2644,0.0303,-0.2519,nothing
0.0117,1.2586,0.0303,-0.2562,nothing
0.0120,1.2528,0.0303,-0.2605,nothing
0.0123,1.2468,0.0303,-0.2649,nothing
0.0126,1.2408,0.0303,-0.2692,nothing
0.0129,1.2346,0.0303,-0.2735,nothing
0.0132,1.2284,0.0303,-0.2778,nothing
0.0135,1.2220,0.0303,-0.2821,nothing
0.0138,1.2156,0.0303,-0.2865,nothing
0.0141,1.2090,0.0303,-0.2908,nothing
0.0144,1.2024,0.0303,-0.2951,nothing
0.0147,1.1957,0.0303,-0.2994,nothing
0.0150,1.1888,0.0303,-0.3037,nothing
0.0153,1.1819,0.0303,-0.3081,nothing
0.0156,1.1749,0.0303,-0.3124,nothing
0.0159,1.1677,0.0303,-0.3167,nothing
0.0162,1.1605,0.0303,-0.3210,nothing
0.0165,1.1532,0.0303,-0.3253,nothing
0.0168,1.1458,0.0303,-0.3297,nothing
0.0171,1.1383,0.0303,-0.3340,nothing
0.0174,1.1307,0.0303,-0.3383,nothing
0.0177,1.1229,0.0303,-0.3426,nothing
0.0180,1.1151,0.0303,-0.3469,nothing
0.0183,1.1072,0.0303,-0.3513,nothing
0.0186,1.0992,0.0303,-0.3556,nothing
0.0189,1.0911,0.0303,-0.3599,nothing
0.0192,1.0829,0.0303,-0.3642,nothing
0.0195,1.0746,0.0303,-0.3685,nothing
0.0198,1.0663,0.0303,-0.3729,nothing
0.0201,1.0578,0.0303,-0.3772,nothing
0.0204,1.0492,0.0303,-0.3815,nothing
0.0206,1.0405,0.0303,-0.3858,nothing
0.0209,1.0317,0.0303,-0.3901,nothing
0.0212,1.0229,0.0303,-0.3945,nothing
0.0215,1.0139,0.0303,-0.3988,nothing
0.0218,1.0048,0.0303,-0.4031,nothing
0.0221,0.9956,0.0303,-0.4074,nothing
0.0224,0.9864,0.0303,-0.4117,nothing
0.0227,0.9770,0.0303,-0.4161,nothing
0.0230,0.9676,0.0303,-0.4204,nothing
0.0233,0.9580,0.0303,-0.4247,nothing
0.0236,0.9484,0.0303,-0.4290,nothing
0.0239,0.9386,0.0303,-0.4333,nothing
0.0242,0.9288,0.0303,-0.4377,nothing
0.0245,0.9188,0.0303,-0.4420,nothing
0.0248,0.9088,0.0303,-0.4463,nothing
0.0251,0.8986,0.0303,-0.4506,nothing
0.0254,0.8884,0.0303,-0.4549,nothing
0.0257,0.8781,0.0303,-0.4593,nothing
0.0260,0.8676,0.0303,-0.4636,nothing
0.0263,0.8571,0.0303,-0.4679,nothing
0.0266,0.8465,0.0303,-0.4722,nothing
0.0269,0.8358,0.0303,-0.4765,nothing
0.0272,0.8249,0.0303,-0.4809,nothing
0.0275,0.8140,0.0303,-0.4852,nothing
0.0278,0.8030,0.0303,-0.4895,nothing
0.0281,0.7919,0.0303,-0.4938,nothing
0.0284,0.7807,0.0303,-0.4981,nothing
0.0287,0.7694,0.0303,-0.5025,nothing
0.0290,0.7580,0.0303,-0.5068,nothing
0.0293,0.7465,0.0303,-0.5111,nothing
0.0296,0.7349,0.0303,-0.5154,nothing
0.0299,0.7232,0.0303,-0.5197,nothing
0.0302,0.7114,0.0303,-0.5241,nothing
0.0305,0.6995,0.0303,-0.5284,nothing
0.0308,0.6875,0.0303,-0.5327,nothing
0.0311,0.6755,0.0303,-0.5370,nothing
0.0314,0.6633,0.0303,-0.5413,nothing
0.0317,0.6510,0.0303,-0.5457,nothing
0.0320,0.6386,0.0303,-0.5500,nothing
0.0323,0.6261,0.0303,-0.5543,nothing
0.0326,0.6151,0.0238,-0.4892,main_engine
0.0327,0.6055,0.0183,-0.4302,main_engine
0.0331,0.5970,0.0366,-0.3760,main_engine
0.0336,0.5899,0.0510,-0.3142,main_engine
0.0343,0.5838,0.0675,-0.2735,main_engine
0.0349,0.5783,0.0604,-0.2446,main_engine
0.0355,0.5727,0.0604,-0.2489,nothing
0.0361,0.5670,0.0604,-0.2532,nothing
0.0367,0.5612,0.0604,-0.2576,nothing
0.0373,0.5553,0.0604,-0.2619,nothing
0.0379,0.5493,0.0604,-0.2662,nothing
0.0385,0.5432,0.0604,-0.2705,nothing
0.0391,0.5370,0.0604,-0.2748,nothing
0.0397,0.5308,0.0604,-0.2792,nothing
0.0403,0.5244,0.0604,-0.2835,nothing
0.0409,0.5179,0.0604,-0.2878,nothing
0.0415,0.5113,0.0604,-0.2921,nothing
0.0421,0.5047,0.0604,-0.2964,nothing
0.0427,0.4979,0.0604,-0.3008,nothing
0.0434,0.4910,0.0604,-0.3051,nothing
0.0440,0.4841,0.0604,-0.3094,nothing
0.0446,0.4770,0.0604,-0.3137,nothing
0.0452,0.4698,0.0604,-0.3180,nothing
0.0459,0.4640,0.0717,-0.2592,main_engine
0.0467,0.4591,0.0821,-0.2199,main_engine
0.0475,0.4546,0.0773,-0.1994,main_engine
0.0483,0.4511,0.0760,-0.1543,main_engine
0.0490,0.4475,0.0760,-0.1587,nothing
0.0498,0.4439,0.0760,-0.1630,nothing
0.0506,0.4401,0.0760,-0.1673,nothing
0.0513,0.4362,0.0760,-0.1716,nothing
0.0521,0.4323,0.0760,-0.1759,nothing
0.0529,0.4282,0.0760,-0.1803,nothing
0.0536,0.4241,0.0760,-0.1846,nothing
0.0544,0.4198,0.0760,-0.1889,nothing
0.0552,0.4155,0.0760,-0.1932,nothing
0.0559,0.4120,0.0773,-0.1563,main_engine
0.0567,0.4083,0.0773,-0.1606,nothing
0.0575,0.4046,0.0773,-0.1649,nothing
0.0583,0.4008,0.0773,-0.1693,nothing
0.0590,0.3969,0.0773,-0.1736,nothing
0.0598,0.3929,0.0773,-0.1779,nothing
0.0606,0.3888,0.0773,-0.1822,nothing
0.0614,0.3846,0.0773,-0.1865,nothing
0.0622,0.3803,0.0773,-0.1909,nothing
0.0629,0.3759,0.0773,-0.1952,nothing
0.0637,0.3714,0.0773,-0.1995,nothing
0.0645,0.3669,0.0773,-0.2038,nothing
0.0653,0.3622,0.0773,-0.2081,nothing
0.0661,0.3583,0.0849,-0.1701,main_engine
0.0671,0.3555,0.0954,-0.1276,main_engine
0.0679,0.3534,0.0811,-0.0925,main_engine
0.0687,0.3512,0.0811,-0.0968,nothing
0.0695,0.3489,0.0811,-0.1011,nothing
0.0704,0.3466,0.0811,-0.1054,nothing
0.0712,0.3441,0.0811,-0.1097,nothing
0.0720,0.3415,0.0811,-0.1141,nothing
0.0728,0.3389,0.0811,-0.1184,nothing
0.0736,0.3361,0.0811,-0.1227,nothing
0.0744,0.3333,0.0811,-0.1270,nothing
0.0752,0.3303,0.0811,-0.1313,nothing
0.0761,0.3272,0.0811,-0.1357,nothing
0.0769,0.3241,0.0811,-0.1400,nothing
0.0777,0.3209,0.0811,-0.1443,nothing
0.0785,0.3175,0.0811,-0.1486,nothing
0.0793,0.3141,0.0811,-0.1529,nothing
0.0801,0.3105,0.0811,-0.1573,nothing
0.0810,0.3069,0.0811,-0.1616,nothing
0.0818,0.3032,0.0811,-0.1659,nothing
0.0826,0.2993,0.0811,-0.1702,nothing
0.0834,0.2954,0.0811,-0.1745,nothing
0.0842,0.2914,0.0811,-0.1789,nothing
0.0850,0.2873,0.0811,-0.1832,nothing
0.0859,0.2830,0.0811,-0.1875,nothing
0.0867,0.2787,0.0811,-0.1918,nothing
0.0875,0.2743,0.0811,-0.1961,nothing
0.0883,0.2698,0.0811,-0.2005,nothing
0.0891,0.2652,0.0811,-0.2048,nothing
0.0899,0.2605,0.0811,-0.2091,nothing
0.0908,0.2557,0.0811,-0.2134,nothing
0.0916,0.2508,0.0811,-0.2177,nothing
0.0924,0.2458,0.0811,-0.2221,nothing
0.0932,0.2407,0.0811,-0.2264,nothing
0.0940,0.2355,0.0811,-0.2307,nothing
0.0948,0.2302,0.0811,-0.2350,nothing
0.0956,0.2248,0.0811,-0.2393,nothing
0.0965,0.2194,0.0811,-0.2437,nothing
0.0973,0.2138,0.0811,-0.2480,nothing
0.0981,0.2081,0.0811,-0.2523,nothing
0.0988,0.2033,0.0674,-0.2110,main_engine
0.0996,0.1995,0.0795,-0.1705,main_engine
0.1005,0.1968,0.0915,-0.1186,main_engine
0.1014,0.1941,0.0915,-0.1229,nothing
0.1023,0.1912,0.0915,-0.1272,nothing
0.1033,0.1883,0.0915,-0.1316,nothing
0.1042,0.1852,0.0915,-0.1359,nothing
0.1051,0.1820,0.0915,-0.1402,nothing
0.1060,0.1788,0.0915,-0.1445,nothing
0.1070,0.1754,0.0915,-0.1488,nothing
0.1079,0.1720,0.0915,-0.1532,nothing
0.1088,0.1685,0.0915,-0.1575,nothing
0.1097,0.1648,0.0915,-0.1618,nothing
0.1107,0.1624,0.0963,-0.1082,main_engine
0.1117,0.1609,0.0953,-0.0665,main_engine
0.1126,0.1600,0.0920,-0.0411,main_engine
0.1135,0.1589,0.0920,-0.0454,nothing
0.1145,0.1578,0.0920,-0.0498,nothing
0.1154,0.1566,0.0920,-0.0541,nothing
0.1163,0.1553,0.0920,-0.0584,nothing
0.1173,0.1539,0.0920,-0.0627,nothing
0.1182,0.1524,0.0920,-0.0670,nothing
0.1191,0.1508,0.0920,-0.0714,nothing
0.1201,0.1491,0.0920,-0.0757,nothing
0.1209,0.1473,0.0808,-0.0798,left_engine
0.1217,0.1454,0.0733,-0.0846,left_engine
0.1224,0.1434,0.0612,-0.0891,left_engine
0.1230,0.1413,0.0532,-0.0940,left_engine
0.1236,0.1390,0.0532,-0.0983,nothing
0.1242,0.1367,0.0532,-0.1026,nothing
0.1248,0.1344,0.0532,-0.1069,nothing
0.1255,0.1319,0.0532,-0.1113,nothing
0.1261,0.1293,0.0532,-0.1156,nothing
0.1267,0.1266,0.0532,-0.1199,nothing
0.1273,0.1238,0.0532,-0.1243,nothing
0.1280,0.1209,0.0532,-0.1286,nothing
0.1286,0.1179,0.0532,-0.1329,nothing
0.1291,0.1149,0.0450,-0.1380,left_engine
0.1296,0.1117,0.0330,-0.1437,left_engine
0.1301,0.1084,0.0330,-0.1481,nothing
0.1305,0.1050,0.0331,-0.1524,nothing
0.1310,0.1015,0.0331,-0.1567,nothing
0.1314,0.0979,0.0331,-0.1611,nothing
0.1319,0.0942,0.0331,-0.1654,nothing
0.1324,0.0904,0.0331,-0.1697,nothing
0.1328,0.0866,0.0331,-0.1741,nothing
0.1333,0.0826,0.0331,-0.1784,nothing
0.1337,0.0785,0.0331,-0.1827,nothing
0.1342,0.0744,0.0331,-0.1871,nothing
0.1346,0.0701,0.0331,-0.1914,nothing
0.1351,0.0658,0.0331,-0.1957,nothing
0.1356,0.0613,0.0331,-0.2001,nothing
0.1360,0.0568,0.0331,-0.2044,nothing
0.1365,0.0522,0.0331,-0.2087,nothing
0.1369,0.0474,0.0331,-0.2131,nothing
0.1374,0.0426,0.0331,-0.2174,nothing
0.1378,0.0377,0.0331,-0.2217,nothing
0.1383,0.0337,0.0470,-0.1791,nothing
0.1387,0.0304,0.0558,-0.1389,nothing
0.1390,0.0279,0.0633,-0.1047,nothing
0.1392,0.0258,0.0681,-0.0860,nothing
0.1394,0.0237,0.0694,-0.0854,nothing
0.1396,0.0214,0.0607,-0.0925,left_engine
0.1397,0.0191,0.0532,-0.0975,left_engine
0.1397,0.0167,0.0448,-0.1027,left_engine
0.1396,0.0143,0.0336,-0.1084,left_engine
0.1396,0.0117,0.0336,-0.1128,nothing
0.1395,0.0091,0.0336,-0.1173,nothing
0.1395,0.0063,0.0336,-0.1217,nothing
0.1393,0.0036,0.0235,-0.1253,left_engine
0.1392,0.0014,0.0088,-0.0991,left_engine
0.1392,-0.0003,-0.0055,-0.0727,left_engine
0.1393,-0.0015,-0.0092,-0.0516,nothing
0.1395,-0.0024,-0.0114,-0.0419,nothing
0.1397,-0.0035,-0.0118,-0.0443,nothing
0.1399,-0.0046,-0.0126,-0.0500,nothing
0.1400,-0.0054,-0.0063,-0.0344,nothing
0.1400,-0.0057,-0.0001,-0.0130,nothing
0.1398,-0.0056,-0.0042,0.0031,left_engine
0.1396,-0.0051,-0.0088,0.0211,left_engine
0.1394,-0.0043,-0.0147,0.0378,left_engine
0.1392,-0.0031,-0.0236,0.0513,left_engine
0.1389,-0.0020,-0.0246,0.0507,nothing
0.1387,-0.0009,-0.0242,0.0455,nothing
0.1384,-0.0000,-0.0242,0.0411,nothing
0.1381,0.0008,-0.0242,0.0368,nothing
0.1379,0.0015,-0.0242,0.0325,nothing
0.1375,0.0022,-0.0359,0.0283,left_engine
0.1371,0.0027,-0.0476,0.0246,left_engine
0.1365,0.0032,-0.0584,0.0209,left_engine
0.1359,0.0036,-0.0693,0.0171,left_engine
0.1352,0.0039,-0.0806,0.0131,left_engine
0.1344,0.0041,-0.0884,0.0082,left_engine
0.1336,0.0042,-0.0970,0.0040,left_engine
0.1326,0.0042,-0.1067,-0.0005,left_engine
0.1316,0.0045,-0.1103,0.0168,left_engine
0.1304,0.0049,-0.1184,0.0158,left_engine
0.1292,0.0052,-0.1181,0.0125,nothing
0.1281,0.0054,-0.1178,0.0092,nothing
0.1269,0.0055,-0.1175,0.0059,nothing
0.1258,0.0056,-0.1172,0.0027,nothing
0.1246,0.0056,-0.1169,-0.0006,nothing
0.1234,0.0055,-0.1166,-0.0039,nothing
0.1222,0.0053,-0.1163,-0.0072,nothing
0.1211,0.0051,-0.1161,-0.0105,nothing
0.1199,0.0048,-0.1158,-0.0138,nothing
0.1187,0.0044,-0.1155,-0.0171,nothing
0.1175,0.0039,-0.1152,-0.0204,nothing
0.1163,0.0034,-0.1149,-0.0237,nothing
0.1151,0.0028,-0.1146,-0.0271,nothing
0.1139,0.0021,-0.1143,-0.0304,nothing
0.1127,0.0013,-0.1141,-0.0338,nothing
0.1115,0.0005,-0.1138,-0.0372,nothing
0.1103,-0.0004,-0.1135,-0.0406,nothing
0.1091,-0.0014,-0.1133,-0.0440,nothing
0.1080,-0.0015,-0.1050,-0.0052,nothing
0.1071,-0.0009,-0.0972,0.0293,nothing
0.1062,-0.0003,-0.0975,0.0243,nothing
0.1052,0.0001,-0.0973,0.0209,nothing
0.1043,0.0005,-0.0970,0.0176,nothing
0.1034,0.0009,-0.0967,0.0142,nothing
0.1024,0.0011,-0.0964,0.0108,nothing
0.1015,0.0013,-0.0961,0.0075,nothing
0.1005,0.0014,-0.0959,0.0042,nothing
0.0996,0.0014,-0.0956,0.0008,nothing
0.0986,0.0013,-0.0953,-0.0025,nothing
0.0976,0.0012,-0.0950,-0.0059,nothing
0.0967,0.0010,-0.0947,-0.0092,nothing
0.0957,0.0007,-0.0945,-0.0126,nothing
0.0947,0.0004,-0.0942,-0.0159,nothing
0.0938,-0.0001,-0.0939,-0.0193,nothing
0.0928,-0.0006,-0.0936,-0.0226,nothing
0.0919,-0.0006,-0.0884,-0.0002,nothing
0.0910,-0.0006,-0.0875,0.0002,nothing
0.0902,-0.0006,-0.0866,0.0000,nothing
0.0893,-0.0006,-0.0857,-0.0000,nothing
0.0885,-0.0006,-0.0847,-0.0000,nothing
0.0876,-0.0006,-0.0838,0.0000,nothing
0.0868,-0.0006,-0.0829,0.0000,nothing
0.0860,-0.0004,-0.0734,0.0099,nothing
0.0853,-0.0002,-0.0733,0.0064,nothing
0.0846,-0.0002,-0.0732,0.0028,nothing
0.0838,-0.0002,-0.0732,-0.0007,nothing
0.0831,-0.0003,-0.0731,-0.0042,nothing
0.0824,-0.0003,-0.0712,-0.0001,nothing
0.0817,-0.0003,-0.0702,0.0000,nothing
0.0811,-0.0003,-0.0618,-0.0000,right_engine
0.0806,-0.0003,-0.0492,-0.0000,right_engine
0.0802,-0.0003,-0.0390,-0.0000,right_engine
0.0798,-0.0003,-0.0381,0.0000,nothing
0.0794,-0.0003,-0.0372,0.0000,nothing
0.0791,-0.0003,-0.0362,-0.0000,nothing
0.0787,-0.0003,-0.0353,-0.0000,nothing
0.0784,-0.0003,-0.0344,0.0000,nothing
0.0780,-0.0003,-0.0335,0.0000,nothing
0.0777,-0.0003,-0.0326,0.0000,nothing
0.0774,-0.0003,-0.0317,0.0000,nothing
0.0771,-0.0003,-0.0307,0.0000,nothing
0.0768,-0.0003,-0.0298,0.0000,nothing
0.0765,-0.0003,-0.0289,0.0000,nothing
0.0762,-0.0003,-0.0280,-0.0000,nothing
0.0760,-0.0003,-0.0271,-0.0000,nothing
0.0757,-0.0003,-0.0262,-0.0000,nothing
0.0754,-0.0003,-0.0252,-0.0000,nothing
0.0752,-0.0003,-0.0243,-0.0000,nothing
0.0750,-0.0003,-0.0234,-0.0000,nothing
0.0747,-0.0003,-0.0225,-0.0000,nothing
0.0745,-0.0003,-0.0216,-0.0000,nothing
0.0743,-0.0003,-0.0207,-0.0000,nothing
0.0741,-0.0003,-0.0197,-0.0000,nothing
0.0739,-0.0003,-0.0188,-0.0000,nothing
0.0738,-0.0003,-0.0179,-0.0000,nothing
0.0736,-0.0003,-0.0170,0.0000,nothing
0.0734,-0.0003,-0.0161,0.0000,nothing
0.0733,-0.0003,-0.0152,0.0000,nothing
0.0731,-0.0003,-0.0142,0.0000,nothing
0.0730,-0.0003,-0.0133,0.0000,nothing
0.0729,-0.0003,-0.0124,0.0000,nothing
0.0728,-0.0003,-0.0115,0.0000,nothing
0.0727,-0.0003,-0.0106,0.0000,nothing
0.0726,-0.0003,-0.0097,0.0000,nothing
0.0725,-0.0003,-0.0088,0.0000,nothing
0.0724,-0.0003,-0.0078,0.0000,nothing
0.0723,-0.0003,-0.0069,0.0000,nothing
0.0723,-0.0003,-0.0060,-0.0000,nothing
0.0722,-0.0003,-0.0051,-0.0000,nothing
0.0722,-0.0003,-0.0042,-0.0000,nothing
0.0721,-0.0003,-0.0033,-0.0000,nothing
0.0721,-0.0003,-0.0023,-0.0000,nothing
0.0721,-0.0003,-0.0014,-0.0000,nothing
0.0721,-0.0003,-0.0005,-0.0000,nothing
0.0721,-0.0003,0.0001,-0.0000,nothing
0.0721,-0.0003,0.0003,-0.0000,nothing
0.0721,-0.0003,0.0001,-0.0000,nothing
0.0721,-0.0003,-0.0000,0.0000,nothing
0.0721,-0.0003,-0.0000,0.0000,nothing
0.0721,-0.0003,-0.0000,0.0000,nothing
0.0721,-0.0003,-0.0000,0.0000,nothing
0.0721,-0.0003,0.0000,-0.0000,nothing
0.0721,-0.0003,0.0000,-0.0000,nothing
0.0721,-0.0003,0.0000,-0.0000,nothing
0.0721,-0.0003,-0.0000,0.0000,nothing
0.0721,-0.0003,-0.0000,0.0000,nothing
0.0721,-0.0003,-0.0000,0.0000,nothing
0.0721,-0.0003,0.0000,-0.0000,nothing
0.0721,-0.0003,0.0000,-0.0000,nothing
0.0721,-0.0003,0.0000,0.0000,nothing
0.0721,-0.0003,0.0000,-0.0000,nothing
0.0721,-0.0003,-0.0000,0.0000,nothing
0.0721,-0.0003,-0.0000,0.0000,nothing
0.0721,-0.0003,-0.0000,-0.0000,nothing
0.0721,-0.0003,-0.0000,0.0000,nothing
0.0721,-0.0003,0.0000,0.0000,nothing
0.0721,-0.0003,0.0000,0.0000,nothing
-0.0030,1.3934,-0.1504,-0.3914,nothing
-0.0045,1.3845,-0.1504,-0.3957,nothing
-0.0059,1.3755,-0.1504,-0.4001,nothing
-0.0074,1.3664,-0.1504,-0.4044,nothing
-0.0089,1.3572,-0.1504,-0.4087,nothing
-0.0104,1.3479,-0.1504,-0.4130,nothing
-0.0119,1.3385,-0.1504,-0.4174,nothing
-0.0134,1.3290,-0.1504,-0.4217,nothing
-0.0149,1.3194,-0.1504,-0.4260,nothing
-0.0164,1.3097,-0.1504,-0.4303,nothing
-0.0178,1.3000,-0.1504,-0.4346,nothing
-0.0193,1.2901,-0.1504,-0.4390,nothing
-0.0208,1.2801,-0.1504,-0.4433,nothing
-0.0223,1.2700,-0.1504,-0.4476,nothing
-0.0238,1.2599,-0.1504,-0.4519,nothing
-0.0253,1.2496,-0.1504,-0.4563,nothing
-0.0268,1.2393,-0.1505,-0.4606,nothing
-0.0283,1.2288,-0.1505,-0.4649,nothing
-0.0297,1.2182,-0.1505,-0.4692,nothing
-0.0312,1.2076,-0.1505,-0.4735,nothing
-0.0327,1.1968,-0.1505,-0.4779,nothing
-0.0342,1.1860,-0.1505,-0.4822,nothing
-0.0357,1.1750,-0.1505,-0.4865,nothing
-0.0372,1.1640,-0.1505,-0.4908,nothing
-0.0387,1.1528,-0.1504,-0.4961,nothing
-0.0402,1.1416,-0.1504,-0.5004,nothing
-0.0416,1.1302,-0.1504,-0.5047,nothing
-0.0431,1.1188,-0.1504,-0.5091,nothing
-0.0446,1.1072,-0.1504,-0.5134,nothing
-0.0461,1.0956,-0.1504,-0.5177,nothing
-0.0476,1.0838,-0.1504,-0.5220,nothing
-0.0491,1.0720,-0.1504,-0.5263,nothing
-0.0506,1.0600,-0.1504,-0.5307,nothing
-0.0521,1.0480,-0.1504,-0.5350,nothing
-0.0535,1.0359,-0.1504,-0.5393,nothing
-0.0550,1.0236,-0.1504,-0.5436,nothing
-0.0565,1.0113,-0.1504,-0.5479,nothing
-0.0580,0.9989,-0.1504,-0.5523,nothing
-0.0595,0.9864,-0.1504,-0.5566,nothing
-0.0610,0.9738,-0.1504,-0.5609,nothing
-0.0625,0.9610,-0.1504,-0.5652,nothing
-0.0640,0.9482,-0.1504,-0.5695,nothing
-0.0654,0.9353,-0.1504,-0.5739,nothing
-0.0669,0.9223,-0.1504,-0.5782,nothing
-0.0684,0.9092,-0.1504,-0.5825,nothing
-0.0699,0.8960,-0.1504,-0.5868,nothing
-0.0714,0.8827,-0.1504,-0.5912,nothing
-0.0729,0.8693,-0.1504,-0.5955,nothing
-0.0744,0.8558,-0.1504,-0.5998,nothing
-0.0758,0.8422,-0.1504,-0.6041,nothing
-0.0773,0.8285,-0.1504,-0.6084,nothing
-0.0788,0.8148,-0.1504,-0.6128,nothing
-0.0803,0.8009,-0.1504,-0.6171,nothing
-0.0818,0.7869,-0.1504,-0.6214,nothing
-0.0833,0.7728,-0.1504,-0.6257,nothing
-0.0848,0.7586,-0.1504,-0.6300,nothing
-0.0863,0.7444,-0.1504,-0.6344,nothing
-0.0877,0.7307,-0.1501,-0.6074,main_engine
-0.0895,0.7182,-0.1758,-0.5557,main_engine
-0.0912,0.7066,-0.1758,-0.5166,main_engine
-0.0932,0.6961,-0.1981,-0.4662,main_engine
-0.0953,0.6860,-0.2114,-0.4473,main_engine
-0.0974,0.6773,-0.2122,-0.3881,main_engine
-0.0998,0.6695,-0.2323,-0.3465,main_engine
-0.1023,0.6630,-0.2542,-0.2881,main_engine
-0.1049,0.6573,-0.2558,-0.2558,main_engine
-0.1073,0.6520,-0.2427,-0.2344,main_engine
-0.1099,0.6480,-0.2617,-0.1792,main_engine
-0.1127,0.6447,-0.2784,-0.1446,main_engine
-0.1154,0.6419,-0.2703,-0.1226,main_engine
-0.1183,0.6406,-0.2880,-0.0581,main_engine
-0.1214,0.6404,-0.3100,-0.0111,main_engine
-0.1244,0.6412,-0.3056,0.0342,main_engine
-0.1275,0.6418,-0.3056,0.0299,nothing
-0.1306,0.6424,-0.3056,0.0256,nothing
-0.1336,0.6429,-0.3056,0.0213,nothing
-0.1367,0.6433,-0.3056,0.0170,nothing
-0.1397,0.6436,-0.3056,0.0126,nothing
-0.1428,0.6437,-0.3056,0.0083,nothing
-0.1459,0.6438,-0.3147,0.0037,left_engine
-0.1492,0.6438,-0.3269,-0.0016,left_engine
-0.1525,0.6437,-0.3386,-0.0062,left_engine
-0.1559,0.6434,-0.3495,-0.0113,left_engine
-0.1594,0.6431,-0.3611,-0.0163,left_engine
-0.1630,0.6426,-0.3688,-0.0210,left_engine
-0.1666,0.6421,-0.3802,-0.0265,left_engine
-0.1703,0.6414,-0.3802,-0.0308,nothing
-0.1739,0.6407,-0.3802,-0.0351,nothing
-0.1776,0.6398,-0.3802,-0.0395,nothing
-0.1812,0.6389,-0.3802,-0.0438,nothing
-0.1849,0.6378,-0.3802,-0.0482,nothing
-0.1885,0.6368,-0.3687,-0.0506,right_engine
-0.1919,0.6356,-0.3575,-0.0527,right_engine
-0.1953,0.6344,-0.3464,-0.0552,right_engine
-0.1986,0.6331,-0.3356,-0.0575,right_engine
-0.2019,0.6318,-0.3259,-0.0598,right_engine
-0.2050,0.6304,-0.3165,-0.0628,right_engine
-0.2081,0.6289,-0.3047,-0.0655,right_engine
-0.2111,0.6274,-0.2957,-0.0677,right_engine
-0.2140,0.6258,-0.2855,-0.0698,right_engine
-0.2168,0.6241,-0.2751,-0.0727,right_engine
-0.2195,0.6224,-0.2670,-0.0756,right_engine
-0.2222,0.6206,-0.2554,-0.0781,right_engine
-0.2249,0.6187,-0.2554,-0.0824,nothing
-0.2276,0.6167,-0.2554,-0.0868,nothing
-0.2302,0.6146,-0.2554,-0.0911,nothing
-0.2329,0.6124,-0.2554,-0.0954,nothing
-0.2355,0.6102,-0.2445,-0.0985,right_engine
-0.2380,0.6078,-0.2328,-0.1013,right_engine
-0.2404,0.6055,-0.2230,-0.1045,right_engine
-0.2428,0.6030,-0.2230,-0.1088,nothing
-0.2452,0.6004,-0.2230,-0.1132,nothing
-0.2476,0.5977,-0.2230,-0.1175,nothing
-0.2500,0.5950,-0.2230,-0.1219,nothing
-0.2524,0.5921,-0.2230,-0.1262,nothing
-0.2549,0.5892,-0.2230,-0.1306,nothing
-0.2573,0.5861,-0.2230,-0.1349,nothing
-0.2597,0.5830,-0.2230,-0.1393,nothing
-0.2621,0.5798,-0.2230,-0.1436,nothing
-0.2645,0.5764,-0.2230,-0.1480,nothing
-0.2670,0.5730,-0.2308,-0.1524,left_engine
-0.2695,0.5695,-0.2397,-0.1566,left_engine
-0.2722,0.5659,-0.2514,-0.1603,left_engine
-0.2748,0.5622,-0.2514,-0.1646,nothing
-0.2775,0.5585,-0.2514,-0.1689,nothing
-0.2801,0.5546,-0.2514,-0.1733,nothing
-0.2827,0.5506,-0.2514,-0.1776,nothing
-0.2855,0.5466,-0.2614,-0.1808,left_engine
-0.2882,0.5424,-0.2695,-0.1845,left_engine
-0.2911,0.5382,-0.2782,-0.1879,left_engine
-0.2940,0.5339,-0.2888,-0.1909,left_engine
-0.2970,0.5295,-0.2888,-0.1953,nothing
-0.2999,0.5251,-0.2888,-0.1996,nothing
-0.3028,0.5205,-0.2888,-0.2039,nothing
-0.3058,0.5158,-0.2888,-0.2082,nothing
-0.3087,0.5111,-0.2888,-0.2126,nothing
-0.3116,0.5062,-0.2802,-0.2179,right_engine
-0.3144,0.5012,-0.2713,-0.2238,right_engine
-0.3171,0.4960,-0.2600,-0.2300,right_engine
-0.3197,0.4908,-0.2525,-0.2357,right_engine
-0.3223,0.4854,-0.2438,-0.2415,right_engine
-0.3248,0.4799,-0.2355,-0.2473,right_engine
-0.3272,0.4743,-0.2236,-0.2532,right_engine
-0.3296,0.4685,-0.2142,-0.2597,right_engine
-0.3319,0.4626,-0.2062,-0.2658,right_engine
-0.3341,0.4566,-0.1985,-0.2721,right_engine
-0.3362,0.4505,-0.1914,-0.2786,right_engine
-0.3383,0.4442,-0.1829,-0.2854,right_engine
-0.3403,0.4378,-0.1741,-0.2923,right_engine
-0.3423,0.4313,-0.1671,-0.2988,right_engine
-0.3442,0.4247,-0.1593,-0.3060,right_engine
-0.3460,0.4179,-0.1502,-0.3134,right_engine
-0.3477,0.4109,-0.1438,-0.3209,right_engine
-0.3495,0.4039,-0.1439,-0.3253,nothing
-0.3512,0.3968,-0.1440,-0.3297,nothing
-0.3530,0.3897,-0.1441,-0.3341,nothing
-0.3548,0.3825,-0.1530,-0.3344,left_engine
-0.3566,0.3753,-0.1625,-0.3335,left_engine
-0.3586,0.3681,-0.1692,-0.3332,left_engine
-0.3605,0.3609,-0.1761,-0.3326,left_engine
-0.3625,0.3537,-0.1837,-0.3314,left_engine
-0.3646,0.3465,-0.1910,-0.3307,left_engine
-0.3667,0.3393,-0.1963,-0.3306,left_engine
-0.3688,0.3321,-0.2024,-0.3302,left_engine
-0.3710,0.3249,-0.2077,-0.3298,left_engine
-0.3732,0.3176,-0.2151,-0.3288,left_engine
-0.3755,0.3104,-0.2212,-0.3285,left_engine
-0.3779,0.3031,-0.2280,-0.3276,left_engine
-0.3802,0.2959,-0.2351,-0.3258,left_engine
-0.3827,0.2886,-0.2422,-0.3235,left_engine
-0.3852,0.2814,-0.2477,-0.3224,left_engine
-0.3877,0.2741,-0.2522,-0.3227,left_engine
-0.3902,0.2668,-0.2522,-0.3270,nothing
-0.3927,0.2593,-0.2522,-0.3313,nothing
-0.3952,0.2518,-0.2522,-0.3356,nothing
-0.3978,0.2442,-0.2590,-0.3333,left_engine
-0.4004,0.2367,-0.2647,-0.3316,left_engine
-0.4031,0.2291,-0.2688,-0.3317,left_engine
-0.4058,0.2216,-0.2760,-0.3303,left_engine
-0.4085,0.2140,-0.2812,-0.3294,left_engine
-0.4112,0.2064,-0.2812,-0.3337,nothing
-0.4140,0.1986,-0.2812,-0.3380,nothing
-0.4167,0.1908,-0.2812,-0.3424,nothing
-0.4190,0.1832,-0.2400,-0.3307,main_engine
-0.4208,0.1763,-0.1882,-0.2998,main_engine
-0.4223,0.1696,-0.1573,-0.2883,main_engine
-0.4233,0.1638,-0.1096,-0.2555,main_engine
-0.4241,0.1582,-0.0844,-0.2432,main_engine
-0.4243,0.1531,-0.0269,-0.2186,main_engine
-0.4238,0.1485,0.0337,-0.1977,main_engine
-0.4228,0.1450,0.0911,-0.1508,main_engine
-0.4218,0.1414,0.0911,-0.1552,nothing
-0.4208,0.1376,0.0911,-0.1595,nothing
-0.4198,0.1338,0.0910,-0.1638,nothing
-0.4188,0.1299,0.0910,-0.1682,nothing
-0.4178,0.1259,0.0910,-0.1725,nothing
-0.4168,0.1218,0.0910,-0.1768,nothing
-0.4158,0.1176,0.0910,-0.1812,nothing
-0.4148,0.1133,0.0910,-0.1855,nothing
-0.4131,0.1099,0.1566,-0.1455,main_engine
-0.4107,0.1074,0.2234,-0.1064,main_engine
-0.4081,0.1053,0.2549,-0.0887,main_engine
-0.4054,0.1030,0.2549,-0.0930,nothing
-0.4027,0.1007,0.2549,-0.0974,nothing
-0.4001,0.0983,0.2548,-0.1017,nothing
-0.3972,0.0969,0.2811,-0.0586,main_engine
-0.3938,0.0961,0.3242,-0.0319,main_engine
-0.3904,0.0951,0.3242,-0.0362,nothing
-0.3871,0.0941,0.3242,-0.0405,nothing
-0.3832,0.0938,0.3714,-0.0102,main_engine
-0.3789,0.0944,0.4190,0.0322,main_engine
-0.3743,0.0957,0.4431,0.0643,main_engine
-0.3698,0.0970,0.4431,0.0600,nothing
-0.3652,0.0981,0.4430,0.0556,nothing
-0.3606,0.0992,0.4430,0.0513,nothing
-0.3561,0.1002,0.4430,0.0469,nothing
-0.3515,0.1010,0.4430,0.0426,nothing
-0.3469,0.1018,0.4430,0.0383,nothing
-0.3421,0.1029,0.4694,0.0532,main_engine
-0.3371,0.1047,0.4825,0.0832,main_engine
-0.3322,0.1064,0.4824,0.0789,nothing
-0.3272,0.1080,0.4824,0.0745,nothing
-0.3222,0.1095,0.4824,0.0702,nothing
-0.3173,0.1109,0.4824,0.0659,nothing
-0.3123,0.1122,0.4824,0.0615,nothing
-0.3073,0.1135,0.4824,0.0572,nothing
-0.3024,0.1146,0.4824,0.0528,nothing
-0.2974,0.1156,0.4824,0.0485,nothing
-0.2924,0.1166,0.4824,0.0442,nothing
-0.2874,0.1174,0.4824,0.0398,nothing
-0.2825,0.1182,0.4824,0.0355,nothing
-0.2775,0.1188,0.4824,0.0311,nothing
-0.2725,0.1194,0.4823,0.0268,nothing
-0.2676,0.1198,0.4823,0.0225,nothing
-0.2626,0.1202,0.4823,0.0181,nothing
-0.2576,0.1205,0.4823,0.0138,nothing
-0.2526,0.1207,0.4823,0.0095,nothing
-0.2477,0.1208,0.4823,0.0051,nothing
-0.2427,0.1208,0.4823,0.0008,nothing
-0.2377,0.1207,0.4823,-0.0036,nothing
-0.2327,0.1205,0.4823,-0.0079,nothing
-0.2278,0.1202,0.4823,-0.0122,nothing
-0.2228,0.1198,0.4823,-0.0166,nothing
-0.2178,0.1193,0.4823,-0.0209,nothing
-0.2128,0.1188,0.4823,-0.0253,nothing
-0.2079,0.1181,0.4823,-0.0296,nothing
-0.2029,0.1174,0.4823,-0.0339,nothing
-0.1979,0.1165,0.4823,-0.0383,nothing
-0.1929,0.1156,0.4823,-0.0426,nothing
-0.1880,0.1145,0.4823,-0.0470,nothing
-0.1830,0.1134,0.4823,-0.0513,nothing
-0.1780,0.1122,0.4823,-0.0556,nothing
-0.1730,0.1109,0.4823,-0.0600,nothing
-0.1681,0.1094,0.4823,-0.0643,nothing
-0.1631,0.1079,0.4823,-0.0686,nothing
-0.1581,0.1063,0.4823,-0.0730,nothing
-0.1531,0.1046,0.4823,-0.0773,nothing
-0.1482,0.1028,0.4824,-0.0817,nothing
-0.1432,0.1009,0.4824,-0.0860,nothing
-0.1382,0.0990,0.4824,-0.0903,nothing
-0.1333,0.0969,0.4824,-0.0947,nothing
-0.1283,0.0947,0.4824,-0.0990,nothing
-0.1233,0.0925,0.4824,-0.1034,nothing
-0.1183,0.0901,0.4824,-0.1077,nothing
-0.1134,0.0876,0.4824,-0.1120,nothing
-0.1084,0.0851,0.4824,-0.1164,nothing
-0.1034,0.0825,0.4824,-0.1207,nothing
-0.0985,0.0797,0.4824,-0.1250,nothing
-0.0936,0.0768,0.4718,-0.1318,left_engine
-0.0888,0.0738,0.4638,-0.1383,left_engine
-0.0840,0.0707,0.4542,-0.1459,left_engine
-0.0793,0.0674,0.4542,-0.1502,nothing
-0.0746,0.0641,0.4542,-0.1546,nothing
-0.0698,0.0607,0.4543,-0.1589,nothing
-0.0651,0.0572,0.4543,-0.1633,nothing
-0.0604,0.0535,0.4543,-0.1676,nothing
-0.0558,0.0505,0.4524,-0.1361,nothing
-0.0515,0.0479,0.4456,-0.1097,nothing
-0.0474,0.0458,0.4398,-0.0864,nothing
-0.0434,0.0438,0.4367,-0.0753,nothing
-0.0394,0.0418,0.4365,-0.0775,nothing
-0.0355,0.0396,0.4301,-0.0859,left_engine
-0.0316,0.0373,0.4221,-0.0928,left_engine
-0.0278,0.0350,0.4139,-0.0993,left_engine
-0.0241,0.0324,0.4043,-0.1057,left_engine
-0.0204,0.0298,0.3964,-0.1112,left_engine
-0.0169,0.0271,0.3885,-0.1168,left_engine
-0.0134,0.0243,0.3787,-0.1223,left_engine
-0.0099,0.0214,0.3787,-0.1267,nothing
-0.0064,0.0184,0.3665,-0.1317,left_engine
-0.0031,0.0152,0.3583,-0.1367,left_engine
0.0002,0.0120,0.3501,-0.1419,left_engine
0.0034,0.0087,0.3501,-0.1463,nothing
0.0067,0.0053,0.3501,-0.1506,nothing
0.0100,0.0018,0.3501,-0.1550,nothing
0.0133,-0.0017,0.3501,-0.1593,nothing
0.0166,-0.0047,0.3389,-0.1313,nothing
0.0201,-0.0071,0.3322,-0.1064,nothing
0.0233,-0.0085,0.3122,-0.0641,left_engine
0.0264,-0.0090,0.2948,-0.0234,left_engine
0.0293,-0.0087,0.2776,0.0136,left_engine
0.0319,-0.0077,0.2583,0.0479,left_engine
0.0343,-0.0060,0.2433,0.0749,left_engine
0.0366,-0.0039,0.2289,0.0915,left_engine
0.0387,-0.0017,0.2185,0.0967,left_engine
0.0409,0.0003,0.2182,0.0903,nothing
0.0431,0.0022,0.2183,0.0858,nothing
0.0453,0.0040,0.2186,0.0810,nothing
0.0474,0.0058,0.2071,0.0762,left_engine
0.0494,0.0074,0.1969,0.0715,left_engine
0.0513,0.0089,0.1893,0.0668,left_engine
0.0532,0.0103,0.1811,0.0625,left_engine
0.0550,0.0116,0.1705,0.0581,left_engine
0.0567,0.0128,0.1616,0.0539,left_engine
0.0583,0.0139,0.1508,0.0490,left_engine
0.0599,0.0149,0.1415,0.0445,left_engine
0.0614,0.0158,0.1334,0.0393,left_engine
0.0628,0.0166,0.1241,0.0343,left_engine
0.0643,0.0173,0.1242,0.0299,nothing
0.0657,0.0180,0.1242,0.0256,nothing
0.0671,0.0185,0.1242,0.0212,nothing
0.0684,0.0192,0.1221,0.0334,nothing
0.0697,0.0199,0.1220,0.0300,nothing
0.0709,0.0205,0.1219,0.0266,nothing
0.0722,0.0211,0.1218,0.0233,nothing
0.0735,0.0215,0.1216,0.0199,nothing
0.0747,0.0219,0.1215,0.0166,nothing
0.0760,0.0222,0.1214,0.0133,nothing
0.0772,0.0225,0.1213,0.0100,nothing
0.0784,0.0226,0.1211,0.0067,nothing
0.0796,0.0227,0.1210,0.0035,nothing
0.0808,0.0227,0.1209,0.0002,nothing
0.0820,0.0226,0.1207,-0.0031,nothing
0.0832,0.0225,0.1206,-0.0064,nothing
0.0844,0.0223,0.1205,-0.0096,nothing
0.0856,0.0220,0.1203,-0.0129,nothing
0.0868,0.0216,0.1202,-0.0162,nothing
0.0879,0.0211,0.1201,-0.0195,nothing
0.0891,0.0206,0.1200,-0.0228,nothing
0.0902,0.0200,0.1198,-0.0262,nothing
0.0912,0.0194,0.1082,-0.0277,left_engine
0.0922,0.0187,0.0986,-0.0295,left_engine
0.0930,0.0180,0.0877,-0.0315,left_engine
0.0937,0.0172,0.0772,-0.0333,left_engine
0.0944,0.0164,0.0771,-0.0367,nothing
0.0951,0.0154,0.0770,-0.0402,nothing
0.0958,0.0144,0.0769,-0.0436,nothing
0.0964,0.0134,0.0768,-0.0471,nothing
0.0970,0.0123,0.0698,-0.0488,left_engine
0.0975,0.0111,0.0589,-0.0495,left_engine
0.0979,0.0100,0.0517,-0.0507,left_engine
0.0983,0.0088,0.0406,-0.0511,left_engine
0.0985,0.0076,0.0319,-0.0521,left_engine
0.0986,0.0064,0.0240,-0.0531,left_engine
0.0986,0.0052,0.0134,-0.0538,left_engine
0.0986,0.0040,0.0033,-0.0544,left_engine
0.0984,0.0027,-0.0075,-0.0550,left_engine
0.0981,0.0015,-0.0162,-0.0561,left_engine
0.0978,0.0002,-0.0274,-0.0561,left_engine
0.0974,-0.0011,-0.0271,-0.0596,nothing
0.0972,-0.0016,-0.0197,-0.0206,nothing
0.0970,-0.0016,-0.0146,0.0001,nothing
0.0969,-0.0016,-0.0137,0.0001,nothing
0.0967,-0.0015,-0.0218,0.0063,left_engine
0.0964,-0.0013,-0.0296,0.0049,left_engine
0.0960,-0.0012,-0.0392,0.0045,left_engine
0.0955,-0.0012,-0.0503,0.0040,left_engine
0.0950,-0.0011,-0.0500,0.0006,nothing
0.0945,-0.0011,-0.0492,-0.0000,nothing
0.0940,-0.0011,-0.0483,-0.0000,nothing
0.0936,-0.0011,-0.0474,0.0000,nothing
0.0931,-0.0011,-0.0464,0.0000,nothing
0.0926,-0.0011,-0.0455,0.0000,nothing
0.0922,-0.0011,-0.0446,-0.0000,nothing
0.0918,-0.0011,-0.0437,-0.0000,nothing
0.0913,-0.0011,-0.0428,-0.0000,nothing
0.0909,-0.0011,-0.0419,-0.0000,nothing
0.0905,-0.0011,-0.0409,-0.0000,nothing
0.0901,-0.0011,-0.0400,-0.0000,nothing
0.0897,-0.0011,-0.0391,-0.0000,nothing
0.0893,-0.0011,-0.0382,0.0000,nothing
0.0889,-0.0011,-0.0373,0.0000,nothing
0.0886,-0.0011,-0.0364,0.0000,nothing
0.0882,-0.0011,-0.0354,0.0000,nothing
0.0879,-0.0011,-0.0345,0.0000,nothing
0.0876,-0.0011,-0.0336,0.0000,nothing
0.0872,-0.0011,-0.0327,0.0000,nothing
0.0869,-0.0011,-0.0318,0.0000,nothing
0.0866,-0.0011,-0.0266,0.0036,nothing
0.0864,-0.0011,-0.0265,0.0001,nothing
0.0861,-0.0011,-0.0256,-0.0000,nothing
0.0859,-0.0011,-0.0247,-0.0000,nothing
0.0856,-0.0011,-0.0238,-0.0000,nothing
0.0854,-0.0011,-0.0228,0.0000,nothing
0.0852,-0.0011,-0.0219,0.0000,nothing
0.0850,-0.0011,-0.0210,-0.0000,nothing
0.0848,-0.0011,-0.0201,-0.0000,nothing
0.0846,-0.0011,-0.0192,-0.0000,nothing
0.0844,-0.0011,-0.0183,-0.0000,nothing
0.0842,-0.0011,-0.0174,-0.0000,nothing
0.0841,-0.0011,-0.0164,-0.0000,nothing
0.0839,-0.0011,-0.0155,0.0000,nothing
0.0838,-0.0011,-0.0146,0.0000,nothing
0.0836,-0.0011,-0.0137,0.0000,nothing
0.0835,-0.0011,-0.0128,0.0000,nothing
0.0834,-0.0011,-0.0119,0.0000,nothing
0.0833,-0.0011,-0.0109,0.0000,nothing
0.0832,-0.0011,-0.0100,0.0000,nothing
0.0831,-0.0011,-0.0091,0.0000,nothing
0.0830,-0.0011,-0.0082,0.0000,nothing
0.0829,-0.0011,-0.0073,-0.0000,nothing
0.0829,-0.0011,-0.0064,-0.0000,nothing
0.0828,-0.0011,-0.0054,-0.0000,nothing
0.0828,-0.0011,-0.0045,-0.0000,nothing
0.0827,-0.0011,-0.0036,-0.0000,nothing
0.0827,-0.0011,-0.0027,-0.0000,nothing
0.0827,-0.0011,-0.0018,-0.0000,nothing
0.0827,-0.0011,-0.0009,-0.0000,nothing
0.0827,-0.0011,0.0000,0.0000,nothing
0.0827,-0.0011,0.0003,0.0000,nothing
0.0827,-0.0011,0.0002,0.0000,nothing
0.0827,-0.0011,0.0000,0.0000,nothing
0.0827,-0.0011,-0.0000,-0.0000,nothing
0.0827,-0.0011,-0.0000,-0.0000,nothing
0.0827,-0.0011,-0.0000,-0.0000,nothing
0.0827,-0.0011,0.0000,0.0000,nothing
0.0827,-0.0011,0.0000,0.0000,nothing
0.0827,-0.0011,0.0000,0.0000,nothing
0.0827,-0.0011,-0.0000,-0.0000,nothing
0.0827,-0.0011,-0.0000,0.0000,nothing
0.0827,-0.0011,-0.0000,-0.0000,nothing
0.0827,-0.0011,-0.0000,0.0000,nothing
0.0827,-0.0011,0.0000,0.0000,nothing
0.0827,-0.0011,0.0000,0.0000,nothing
0.0827,-0.0011,0.0000,-0.0000,nothing
0.0827,-0.0011,-0.0000,-0.0000,nothing
0.0827,-0.0011,-0.0000,0.0000,nothing
0.0827,-0.0011,-0.0000,-0.0000,nothing
0.0827,-0.0011,0.0000,-0.0000,nothing
0.0827,-0.0011,0.0000,-0.0000,nothing
0.0827,-0.0011,0.0000,0.0000,nothing
-0.0136,1.4106,-0.6876,-0.0094,nothing
-0.0204,1.4103,-0.6876,-0.0137,nothing
-0.0272,1.4099,-0.6876,-0.0180,nothing
-0.0340,1.4094,-0.6877,-0.0224,nothing
-0.0408,1.4088,-0.6877,-0.0267,nothing
-0.0476,1.4081,-0.6877,-0.0310,nothing
-0.0544,1.4073,-0.6877,-0.0353,nothing
-0.0612,1.4064,-0.6878,-0.0397,nothing
-0.0680,1.4054,-0.6878,-0.0440,nothing
-0.0748,1.4043,-0.6878,-0.0483,nothing
-0.0816,1.4032,-0.6878,-0.0526,nothing
-0.0884,1.4019,-0.6878,-0.0570,nothing
-0.0952,1.4005,-0.6879,-0.0613,nothing
-0.1020,1.3991,-0.6879,-0.0656,nothing
-0.1088,1.3975,-0.6879,-0.0700,nothing
-0.1156,1.3959,-0.6879,-0.0743,nothing
-0.1224,1.3941,-0.6879,-0.0786,nothing
-0.1292,1.3923,-0.6880,-0.0829,nothing
-0.1360,1.3903,-0.6880,-0.0873,nothing
-0.1428,1.3883,-0.6880,-0.0916,nothing
-0.1496,1.3861,-0.6880,-0.0959,nothing
-0.1564,1.3839,-0.6880,-0.1003,nothing
-0.1632,1.3816,-0.6881,-0.1046,nothing
-0.1700,1.3791,-0.6881,-0.1089,nothing
-0.1768,1.3766,-0.6877,-0.1137,nothing
-0.1836,1.3739,-0.6878,-0.1185,nothing
-0.1904,1.3712,-0.6878,-0.1228,nothing
-0.1972,1.3684,-0.6878,-0.1272,nothing
-0.2040,1.3654,-0.6878,-0.1315,nothing
-0.2108,1.3624,-0.6878,-0.1358,nothing
-0.2176,1.3593,-0.6878,-0.1401,nothing
-0.2244,1.3561,-0.6878,-0.1445,nothing
-0.2312,1.3528,-0.6878,-0.1488,nothing
-0.2380,1.3493,-0.6878,-0.1531,nothing
-0.2449,1.3458,-0.6878,-0.1574,nothing
-0.0030,1.4066,-0.1526,-0.0982,nothing
-0.0045,1.4043,-0.1526,-0.1025,nothing
-0.0060,1.4019,-0.1526,-0.1068,nothing
-0.0075,1.3994,-0.1526,-0.1111,nothing
-0.0091,1.3968,-0.1526,-0.1154,nothing
-0.0106,1.3941,-0.1526,-0.1198,nothing
-0.0121,1.3913,-0.1526,-0.1241,nothing
-0.0136,1.3884,-0.1526,-0.1284,nothing
-0.0151,1.3854,-0.1526,-0.1327,nothing
-0.0166,1.3823,-0.1526,-0.1371,nothing
-0.0181,1.3791,-0.1526,-0.1414,nothing
-0.0196,1.3759,-0.1526,-0.1457,nothing
-0.0211,1.3725,-0.1526,-0.1500,nothing
-0.0226,1.3690,-0.1526,-0.1543,nothing
-0.0241,1.3655,-0.1526,-0.1587,nothing
-0.0256,1.3618,-0.1526,-0.1630,nothing
-0.0272,1.3580,-0.1526,-0.1673,nothing
-0.0287,1.3542,-0.1527,-0.1716,nothing
-0.0302,1.3502,-0.1527,-0.1760,nothing
-0.0317,1.3461,-0.1527,-0.1803,nothing
-0.0332,1.3420,-0.1527,-0.1846,nothing
-0.0347,1.3377,-0.1527,-0.1889,nothing
-0.0362,1.3334,-0.1527,-0.1932,nothing
-0.0377,1.3290,-0.1527,-0.1976,nothing
-0.0392,1.3244,-0.1526,-0.2028,nothing
-0.0407,1.3197,-0.1526,-0.2072,nothing
-0.0423,1.3150,-0.1526,-0.2115,nothing
-0.0438,1.3101,-0.1526,-0.2158,nothing
-0.0453,1.3052,-0.1526,-0.2201,nothing
-0.0468,1.3001,-0.1526,-0.2244,nothing
-0.0483,1.2950,-0.1526,-0.2288,nothing
-0.0498,1.2897,-0.1526,-0.2331,nothing
-0.0513,1.2844,-0.1526,-0.2374,nothing
-0.0528,1.2790,-0.1526,-0.2417,nothing
-0.0543,1.2734,-0.1526,-0.2460,nothing
-0.0558,1.2678,-0.1526,-0.2504,nothing
-0.0573,1.2621,-0.1526,-0.2547,nothing
-0.0588,1.2562,-0.1526,-0.2590,nothing
-0.0604,1.2503,-0.1526,-0.2633,nothing
-0.0619,1.2443,-0.1526,-0.2676,nothing
-0.0634,1.2382,-0.1526,-0.2720,nothing
-0.0649,1.2320,-0.1526,-0.2763,nothing
-0.0664,1.2256,-0.1526,-0.2806,nothing
-0.0679,1.2192,-0.1526,-0.2849,nothing
-0.0694,1.2127,-0.1526,-0.2892,nothing
-0.0709,1.2061,-0.1526,-0.2936,nothing
-0.0724,1.1994,-0.1526,-0.2979,nothing
-0.0739,1.1926,-0.1526,-0.3022,nothing
-0.0754,1.1857,-0.1526,-0.3065,nothing
-0.0770,1.1787,-0.1526,-0.3108,nothing
-0.0785,1.1717,-0.1526,-0.3152,nothing
-0.0800,1.1645,-0.1526,-0.3195,nothing
-0.0815,1.1572,-0.1526,-0.3238,nothing
-0.0830,1.1498,-0.1526,-0.3281,nothing
-0.0845,1.1423,-0.1526,-0.3324,nothing
-0.0860,1.1348,-0.1526,-0.3368,nothing
-0.0875,1.1271,-0.1526,-0.3411,nothing
-0.0890,1.1193,-0.1526,-0.3454,nothing
-0.0905,1.1114,-0.1526,-0.3497,nothing
-0.0920,1.1035,-0.1526,-0.3540,nothing
-0.0936,1.0954,-0.1526,-0.3584,nothing
-0.0951,1.0873,-0.1526,-0.3627,nothing
-0.0966,1.0790,-0.1526,-0.3670,nothing
-0.0981,1.0707,-0.1526,-0.3713,nothing
-0.0996,1.0622,-0.1526,-0.3757,nothing
-0.1011,1.0537,-0.1526,-0.3800,nothing
-0.1026,1.0450,-0.1526,-0.3843,nothing
-0.1041,1.0363,-0.1526,-0.3886,nothing
-0.1056,1.0274,-0.1526,-0.3929,nothing
-0.1071,1.0185,-0.1526,-0.3973,nothing
-0.1086,1.0095,-0.1526,-0.4016,nothing
-0.1102,1.0003,-0.1526,-0.4059,nothing
-0.1117,0.9911,-0.1526,-0.4102,nothing
-0.1132,0.9818,-0.1526,-0.4145,nothing
-0.1148,0.9739,-0.1597,-0.3493,main_engine
-0.1164,0.9665,-0.1677,-0.3299,main_engine
-0.1181,0.9602,-0.1673,-0.2798,main_engine
-0.1198,0.9551,-0.1793,-0.2291,main_engine
-0.1216,0.9498,-0.1793,-0.2334,nothing
-0.1234,0.9445,-0.1793,-0.2377,nothing
-0.1251,0.9390,-0.1793,-0.2421,nothing
-0.1269,0.9335,-0.1793,-0.2464,nothing
-0.1287,0.9279,-0.1793,-0.2507,nothing
-0.1304,0.9221,-0.1793,-0.2550,nothing
-0.1322,0.9163,-0.1793,-0.2593,nothing
-0.1340,0.9104,-0.1793,-0.2637,nothing
-0.1358,0.9044,-0.1793,-0.2680,nothing
-0.1375,0.8982,-0.1793,-0.2723,nothing
-0.1393,0.8920,-0.1793,-0.2766,nothing
-0.1411,0.8857,-0.1793,-0.2809,nothing
-0.1428,0.8793,-0.1793,-0.2853,nothing
-0.1446,0.8728,-0.1793,-0.2896,nothing
-0.1464,0.8662,-0.1793,-0.2939,nothing
-0.1481,0.8595,-0.1793,-0.2982,nothing
-0.1502,0.8540,-0.2074,-0.2437,main_engine
-0.1523,0.8493,-0.2096,-0.2100,main_engine
-0.1545,0.8459,-0.2258,-0.1520,main_engine
-0.1567,0.8434,-0.2242,-0.1113,main_engine
-0.1592,0.8414,-0.2451,-0.0864,main_engine
-0.1616,0.8394,-0.2451,-0.0907,nothing
-0.1640,0.8373,-0.2451,-0.0950,nothing
-0.1664,0.8350,-0.2451,-0.0993,nothing
-0.1689,0.8327,-0.2451,-0.1036,nothing
-0.1713,0.8303,-0.2451,-0.1080,nothing
-0.1737,0.8278,-0.2451,-0.1123,nothing
-0.1762,0.8251,-0.2451,-0.1166,nothing
-0.1786,0.8224,-0.2451,-0.1209,nothing
-0.1810,0.8196,-0.2451,-0.1252,nothing
-0.1834,0.8167,-0.2451,-0.1296,nothing
-0.1859,0.8137,-0.2451,-0.1339,nothing
-0.1883,0.8106,-0.2451,-0.1382,nothing
-0.1906,0.8074,-0.2337,-0.1405,right_engine
-0.1929,0.8042,-0.2249,-0.1433,right_engine
-0.1951,0.8009,-0.2160,-0.1468,right_engine
-0.1972,0.7975,-0.2049,-0.1498,right_engine
-0.1992,0.7941,-0.1934,-0.1523,right_engine
-0.2013,0.7905,-0.1934,-0.1566,nothing
-0.2033,0.7869,-0.1934,-0.1609,nothing
-0.2053,0.7831,-0.1934,-0.1653,nothing
-0.2073,0.7793,-0.1934,-0.1696,nothing
-0.2093,0.7754,-0.1934,-0.1739,nothing
-0.2113,0.7713,-0.1934,-0.1782,nothing
-0.2134,0.7672,-0.1934,-0.1826,nothing
-0.2154,0.7630,-0.1933,-0.1869,nothing
-0.2175,0.7586,-0.2053,-0.1921,left_engine
-0.2197,0.7542,-0.2155,-0.1970,left_engine
-0.2220,0.7497,-0.2236,-0.2019,left_engine
-0.2242,0.7450,-0.2236,-0.2062,nothing
-0.2265,0.7403,-0.2236,-0.2105,nothing
-0.2286,0.7355,-0.2121,-0.2137,right_engine
-0.2307,0.7305,-0.2036,-0.2177,right_engine
-0.2328,0.7256,-0.1919,-0.2208,right_engine
-0.2347,0.7205,-0.1838,-0.2250,right_engine
-0.2365,0.7153,-0.1725,-0.2283,right_engine
-0.2384,0.7101,-0.1725,-0.2327,nothing
-0.2403,0.7048,-0.1822,-0.2368,left_engine
-0.2424,0.6993,-0.1935,-0.2418,left_engine
-0.2445,0.6938,-0.2042,-0.2463,left_engine
-0.2466,0.6881,-0.2042,-0.2506,nothing
-0.2487,0.6824,-0.2042,-0.2549,nothing
-0.2509,0.6766,-0.2156,-0.2588,left_engine
-0.2532,0.6706,-0.2280,-0.2635,left_engine
-0.2556,0.6646,-0.2394,-0.2675,left_engine
-0.2579,0.6585,-0.2394,-0.2718,nothing
-0.2603,0.6523,-0.2394,-0.2762,nothing
-0.2627,0.6460,-0.2394,-0.2805,nothing
-0.2651,0.6396,-0.2394,-0.2848,nothing
-0.2675,0.6331,-0.2394,-0.2891,nothing
-0.2699,0.6265,-0.2394,-0.2934,nothing
-0.2722,0.6198,-0.2304,-0.2977,right_engine
-0.2744,0.6130,-0.2196,-0.3023,right_engine
-0.2766,0.6061,-0.2082,-0.3067,right_engine
-0.2786,0.5991,-0.2001,-0.3107,right_engine
-0.2806,0.5920,-0.1912,-0.3150,right_engine
-0.2826,0.5848,-0.1810,-0.3195,right_engine
-0.2844,0.5775,-0.1690,-0.3245,right_engine
-0.2861,0.5701,-0.1593,-0.3294,right_engine
-0.2878,0.5626,-0.1518,-0.3339,right_engine
-0.2894,0.5550,-0.1404,-0.3385,right_engine
-0.2909,0.5473,-0.1297,-0.3439,right_engine
-0.2924,0.5395,-0.1204,-0.3486,right_engine
-0.2937,0.5316,-0.1114,-0.3538,right_engine
-0.2950,0.5236,-0.0995,-0.3600,right_engine
-0.2962,0.5155,-0.0898,-0.3654,right_engine
-0.2973,0.5072,-0.0812,-0.3714,right_engine
-0.2984,0.4989,-0.0812,-0.3758,nothing
-0.2996,0.4905,-0.0909,-0.3782,left_engine
-0.3009,0.4821,-0.1015,-0.3805,left_engine
-0.3022,0.4736,-0.1087,-0.3836,left_engine
-0.3036,0.4650,-0.1189,-0.3857,left_engine
-0.3050,0.4564,-0.1189,-0.3901,nothing
-0.3061,0.4483,-0.0873,-0.3673,main_engine
-0.3071,0.4406,-0.0790,-0.3456,main_engine
-0.3080,0.4339,-0.0646,-0.3045,main_engine
-0.3086,0.4280,-0.0362,-0.2696,main_engine
-0.3088,0.4234,0.0023,-0.2157,main_engine
-0.3085,0.4198,0.0450,-0.1673,main_engine
-0.3077,0.4173,0.1025,-0.1201,main_engine
-0.3064,0.4159,0.1542,-0.0724,main_engine
-0.3048,0.4150,0.1813,-0.0464,main_engine
-0.3031,0.4141,0.1812,-0.0508,nothing
-0.3015,0.4131,0.1812,-0.0552,nothing
-0.2999,0.4120,0.1811,-0.0595,nothing
-0.2983,0.4109,0.1729,-0.0588,left_engine
-0.2968,0.4097,0.1671,-0.0594,left_engine
-0.2954,0.4086,0.1597,-0.0588,left_engine
-0.2939,0.4074,0.1537,-0.0589,left_engine
-0.2926,0.4063,0.1452,-0.0577,left_engine
-0.2912,0.4050,0.1452,-0.0620,nothing
-0.2898,0.4037,0.1452,-0.0663,nothing
-0.2885,0.4022,0.1452,-0.0706,nothing
-0.2871,0.4007,0.1452,-0.0750,nothing
-0.2858,0.3990,0.1452,-0.0793,nothing
-0.2844,0.3974,0.1403,-0.0797,left_engine
-0.2832,0.3957,0.1332,-0.0789,left_engine
-0.2819,0.3940,0.1274,-0.0787,left_engine
-0.2807,0.3923,0.1220,-0.0781,left_engine
-0.2796,0.3906,0.1168,-0.0778,left_engine
-0.2785,0.3889,0.1097,-0.0755,left_engine
-0.2774,0.3872,0.1028,-0.0734,left_engine
-0.2764,0.3855,0.0977,-0.0731,left_engine
-0.2755,0.3838,0.0906,-0.0719,left_engine
-0.2746,0.3821,0.0837,-0.0710,left_engine
-0.2737,0.3804,0.0762,-0.0691,left_engine
-0.2729,0.3787,0.0701,-0.0683,left_engine
-0.2722,0.3770,0.0638,-0.0677,left_engine
-0.2715,0.3752,0.0569,-0.0678,left_engine
-0.2705,0.3738,0.0855,-0.0554,main_engine
-0.2691,0.3732,0.1276,-0.0178,main_engine
-0.2671,0.3736,0.1815,0.0274,main_engine
-0.2646,0.3751,0.2357,0.0723,main_engine
-0.2617,0.3771,0.2750,0.0965,main_engine
-0.2586,0.3794,0.2984,0.1133,main_engine
-0.2555,0.3817,0.2984,0.1089,nothing
-0.2524,0.3839,0.2983,0.1046,nothing
-0.2492,0.3860,0.2983,0.1003,nothing
-0.2456,0.3894,0.3474,0.1555,main_engine
-0.2417,0.3937,0.3796,0.2011,main_engine
-0.2375,0.3990,0.4118,0.2404,main_engine
-0.2332,0.4042,0.4118,0.2361,nothing
-0.2289,0.4093,0.4117,0.2317,nothing
-0.2247,0.4143,0.4117,0.2274,nothing
-0.2204,0.4192,0.4117,0.2231,nothing
-0.2162,0.4240,0.4117,0.2187,nothing
-0.2119,0.4287,0.4117,0.2144,nothing
-0.2077,0.4333,0.4117,0.2100,nothing
-0.2034,0.4378,0.4117,0.2057,nothing
-0.1992,0.4423,0.4116,0.2014,nothing
-0.1949,0.4466,0.4116,0.1970,nothing
-0.1906,0.4508,0.4116,0.1927,nothing
-0.1864,0.4550,0.4116,0.1884,nothing
-0.1821,0.4590,0.4116,0.1840,nothing
-0.1779,0.4630,0.4116,0.1797,nothing
-0.1736,0.4668,0.4116,0.1753,nothing
-0.1693,0.4706,0.4116,0.1710,nothing
-0.1651,0.4743,0.4115,0.1667,nothing
-0.1608,0.4779,0.4115,0.1623,nothing
-0.1565,0.4813,0.4115,0.1580,nothing
-0.1523,0.4847,0.4115,0.1536,nothing
-0.1480,0.4880,0.4115,0.1493,nothing
-0.1437,0.4912,0.4115,0.1450,nothing
-0.1395,0.4943,0.4115,0.1406,nothing
-0.1352,0.4974,0.4115,0.1363,nothing
-0.1309,0.5003,0.4197,0.1306,right_engine
-0.1264,0.5030,0.4293,0.1252,right_engine
-0.1220,0.5057,0.4400,0.1198,right_engine
-0.1175,0.5083,0.4400,0.1155,nothing
-0.1130,0.5108,0.4400,0.1111,nothing
-0.1084,0.5131,0.4516,0.1058,right_engine
-0.1037,0.5154,0.4603,0.1007,right_engine
-0.0990,0.5175,0.4691,0.0960,right_engine
-0.0942,0.5196,0.4691,0.0917,nothing
-0.0895,0.5215,0.4691,0.0874,nothing
-0.0848,0.5234,0.4691,0.0831,nothing
-0.0801,0.5252,0.4691,0.0788,nothing
-0.0753,0.5268,0.4691,0.0744,nothing
-0.0706,0.5284,0.4691,0.0701,nothing
-0.0659,0.5299,0.4691,0.0658,nothing
-0.0611,0.5313,0.4691,0.0615,nothing
-0.0565,0.5326,0.4590,0.0578,left_engine
-0.0519,0.5338,0.4468,0.0548,left_engine
-0.0475,0.5349,0.4353,0.0511,left_engine
-0.0430,0.5359,0.4353,0.0467,nothing
-0.0386,0.5369,0.4353,0.0424,nothing
-0.0342,0.5377,0.4255,0.0382,left_engine
-0.0298,0.5385,0.4255,0.0339,nothing
-0.0255,0.5392,0.4156,0.0300,left_engine
-0.0212,0.5397,0.4156,0.0257,nothing
-0.0169,0.5402,0.4156,0.0213,nothing
-0.0126,0.5406,0.4156,0.0170,nothing
-0.0083,0.5409,0.4080,0.0121,left_engine
-0.0041,0.5411,0.4080,0.0077,nothing
0.0002,0.5412,0.4080,0.0034,nothing
0.0044,0.5412,0.4080,-0.0009,nothing
0.0086,0.5411,0.4080,-0.0053,nothing
0.0129,0.5409,0.4080,-0.0096,nothing
0.0171,0.5406,0.4080,-0.0140,nothing
0.0214,0.5402,0.4080,-0.0183,nothing
0.0256,0.5397,0.4080,-0.0227,nothing
0.0298,0.5392,0.4080,-0.0270,nothing
0.0341,0.5385,0.4080,-0.0313,nothing
0.0383,0.5378,0.4080,-0.0357,nothing
0.0426,0.5369,0.4080,-0.0400,nothing
0.0468,0.5360,0.4080,-0.0444,nothing
0.0510,0.5349,0.4080,-0.0487,nothing
0.0553,0.5338,0.4080,-0.0530,nothing
0.0595,0.5326,0.4081,-0.0574,nothing
0.0638,0.5313,0.4081,-0.0617,nothing
0.0680,0.5299,0.4081,-0.0661,nothing
0.0720,0.5293,0.3836,-0.0282,main_engine
0.0760,0.5287,0.3836,-0.0326,nothing
0.0800,0.5279,0.3836,-0.0369,nothing
0.0839,0.5271,0.3836,-0.0413,nothing
0.0877,0.5269,0.3606,-0.0136,main_engine
0.0909,0.5278,0.3061,0.0385,main_engine
0.0937,0.5302,0.2696,0.0998,main_engine
0.0966,0.5324,0.2696,0.0954,nothing
0.0994,0.5346,0.2696,0.0911,nothing
0.1022,0.5366,0.2696,0.0868,nothing
0.1051,0.5386,0.2696,0.0824,nothing
0.1079,0.5405,0.2696,0.0781,nothing
0.1107,0.5422,0.2696,0.0738,nothing
0.1136,0.5439,0.2697,0.0694,nothing
0.1164,0.5455,0.2697,0.0651,nothing
0.1192,0.5470,0.2697,0.0607,nothing
0.1221,0.5484,0.2697,0.0564,nothing
0.1249,0.5497,0.2697,0.0521,nothing
0.1277,0.5509,0.2697,0.0477,nothing
0.1305,0.5520,0.2698,0.0434,nothing
0.1334,0.5531,0.2698,0.0391,nothing
0.1362,0.5540,0.2698,0.0347,nothing
0.1390,0.5548,0.2698,0.0304,nothing
0.1418,0.5555,0.2698,0.0261,nothing
0.1446,0.5562,0.2698,0.0217,nothing
0.1474,0.5567,0.2699,0.0174,nothing
0.1503,0.5572,0.2699,0.0130,nothing
0.1531,0.5575,0.2699,0.0087,nothing
0.1559,0.5578,0.2699,0.0044,nothing
0.1587,0.5580,0.2699,0.0000,nothing
0.1615,0.5580,0.2700,-0.0043,nothing
0.1643,0.5580,0.2700,-0.0086,nothing
0.1671,0.5579,0.2700,-0.0130,nothing
0.1699,0.5577,0.2700,-0.0173,nothing
0.1727,0.5574,0.2701,-0.0216,nothing
0.1755,0.5570,0.2701,-0.0260,nothing
0.1783,0.5565,0.2701,-0.0303,nothing
0.1803,0.5565,0.1929,-0.0078,main_engine
0.1821,0.5569,0.1685,0.0090,main_engine
0.1834,0.5578,0.1206,0.0351,main_engine
0.1840,0.5596,0.0504,0.0705,main_engine
0.1842,0.5617,0.0124,0.0843,main_engine
0.1837,0.5642,-0.0652,0.1014,main_engine
0.1824,0.5672,-0.1344,0.1241,main_engine
0.1805,0.5706,-0.1976,0.1446,main_engine
0.1778,0.5745,-0.2748,0.1654,main_engine
0.1743,0.5792,-0.3575,0.2012,main_engine
0.1708,0.5839,-0.3575,0.1969,nothing
0.1673,0.5884,-0.3575,0.1926,nothing
0.1638,0.5928,-0.3574,0.1882,nothing
0.1603,0.5972,-0.3574,0.1839,nothing
0.1568,0.6014,-0.3574,0.1796,nothing
0.1533,0.6056,-0.3574,0.1753,nothing
0.1498,0.6096,-0.3573,0.1709,nothing
0.1463,0.6137,-0.3535,0.1727,right_engine
0.1428,0.6177,-0.3500,0.1744,right_engine
0.1394,0.6218,-0.3465,0.1758,right_engine
0.1360,0.6258,-0.3465,0.1715,nothing
0.1325,0.6297,-0.3465,0.1672,nothing
0.1291,0.6334,-0.3465,0.1629,nothing
0.1257,0.6371,-0.3465,0.1585,nothing
0.1222,0.6407,-0.3465,0.1542,nothing
0.1188,0.6441,-0.3494,0.1440,left_engine
0.1153,0.6472,-0.3528,0.1326,left_engine
0.1118,0.6502,-0.3553,0.1231,left_engine
0.1082,0.6530,-0.3581,0.1136,left_engine
0.1047,0.6556,-0.3611,0.1029,left_engine
0.1011,0.6581,-0.3611,0.0985,nothing
0.0976,0.6605,-0.3611,0.0942,nothing
0.0940,0.6628,-0.3610,0.0899,nothing
0.0904,0.6652,-0.3594,0.0913,right_engine
0.0869,0.6675,-0.3579,0.0919,right_engine
0.0833,0.6698,-0.3569,0.0939,right_engine
0.0798,0.6721,-0.3564,0.0947,right_engine
0.0763,0.6743,-0.3549,0.0955,right_engine
0.0727,0.6766,-0.3526,0.0980,right_engine
0.0692,0.6790,-0.3516,0.1008,right_engine
0.0657,0.6813,-0.3506,0.1016,right_engine
0.0622,0.6836,-0.3496,0.1023,right_engine
0.0587,0.6859,-0.3486,0.1060,right_engine
0.0553,0.6883,-0.3468,0.1088,right_engine
0.0518,0.6906,-0.3460,0.1101,right_engine
0.0483,0.6930,-0.3435,0.1134,right_engine
0.0449,0.6954,-0.3424,0.1151,right_engine
0.0415,0.6978,-0.3401,0.1182,right_engine
0.0380,0.7003,-0.3378,0.1206,right_engine
0.0346,0.7027,-0.3366,0.1215,right_engine
0.0312,0.7051,-0.3343,0.1224,right_engine
0.0278,0.7075,-0.3326,0.1235,right_engine
0.0245,0.7100,-0.3305,0.1247,right_engine
0.0211,0.7124,-0.3269,0.1278,right_engine
0.0178,0.7149,-0.3227,0.1306,right_engine
0.0144,0.7174,-0.3199,0.1323,right_engine
0.0111,0.7198,-0.3159,0.1329,right_engine
0.0078,0.7222,-0.3158,0.1286,nothing
0.0045,0.7245,-0.3156,0.1242,nothing
0.0011,0.7268,-0.3155,0.1198,nothing
-0.0022,0.7289,-0.3153,0.1154,nothing
-0.0056,0.7309,-0.3152,0.1111,nothing
-0.0090,0.7329,-0.3150,0.1067,nothing
-0.0124,0.7347,-0.3149,0.1023,nothing
-0.0157,0.7365,-0.3148,0.0979,nothing
-0.0191,0.7382,-0.3146,0.0935,nothing
-0.0226,0.7398,-0.3145,0.0891,nothing
-0.0260,0.7413,-0.3144,0.0847,nothing
-0.0294,0.7428,-0.3143,0.0803,nothing
-0.0328,0.7441,-0.3142,0.0759,nothing
-0.0363,0.7454,-0.3140,0.0715,nothing
-0.0397,0.7466,-0.3139,0.0671,nothing
-0.0432,0.7477,-0.3138,0.0627,nothing
-0.0466,0.7488,-0.3138,0.0582,nothing
-0.0501,0.7497,-0.3137,0.0538,nothing
-0.0536,0.7506,-0.3136,0.0494,nothing
-0.0570,0.7514,-0.3135,0.0450,nothing
-0.0605,0.7521,-0.3134,0.0406,nothing
-0.0640,0.7527,-0.3134,0.0361,nothing
-0.0676,0.7532,-0.3223,0.0294,left_engine
-0.0712,0.7536,-0.3342,0.0230,left_engine
-0.0749,0.7539,-0.3342,0.0186,nothing
-0.0785,0.7541,-0.3341,0.0142,nothing
-0.0822,0.7542,-0.3341,0.0098,nothing
-0.0859,0.7543,-0.3341,0.0054,nothing
-0.0895,0.7543,-0.3341,0.0010,nothing
-0.0932,0.7541,-0.3341,-0.0034,nothing
-0.0969,0.7539,-0.3340,-0.0078,nothing
-0.1005,0.7537,-0.3340,-0.0122,nothing
-0.1042,0.7541,-0.3327,0.0186,main_engine
-0.1079,0.7553,-0.3429,0.0513,main_engine
-0.1116,0.7577,-0.3321,0.1049,main_engine
-0.1152,0.7600,-0.3321,0.1005,nothing
-0.1189,0.7622,-0.3321,0.0961,nothing
-0.1225,0.7644,-0.3321,0.0917,nothing
-0.1262,0.7664,-0.3322,0.0873,nothing
-0.1298,0.7684,-0.3322,0.0829,nothing
-0.1334,0.7703,-0.3322,0.0785,nothing
-0.1371,0.7721,-0.3323,0.0740,nothing
-0.1407,0.7739,-0.3323,0.0696,nothing
-0.1444,0.7755,-0.3401,0.0673,left_engine
-0.1482,0.7772,-0.3489,0.0648,left_engine
-0.1520,0.7788,-0.3579,0.0636,left_engine
-0.1559,0.7803,-0.3682,0.0626,left_engine
-0.1598,0.7819,-0.3747,0.0610,left_engine
-0.1639,0.7834,-0.3854,0.0604,left_engine
-0.1679,0.7848,-0.3854,0.0560,nothing
-0.1719,0.7861,-0.3855,0.0517,nothing
-0.1760,0.7873,-0.3855,0.0473,nothing
-0.1800,0.7885,-0.3855,0.0430,nothing
-0.1841,0.7896,-0.3938,0.0419,left_engine
-0.1882,0.7907,-0.4024,0.0422,left_engine
-0.1925,0.7917,-0.4128,0.0423,left_engine
-0.1968,0.7928,-0.4219,0.0431,left_engine
-0.2011,0.7938,-0.4219,0.0387,nothing
-0.2054,0.7946,-0.4219,0.0344,nothing
-0.2097,0.7954,-0.4219,0.0301,nothing
-0.2140,0.7961,-0.4219,0.0258,nothing
-0.2183,0.7967,-0.4219,0.0214,nothing
-0.2225,0.7971,-0.4136,0.0128,right_engine
-0.2267,0.7973,-0.4076,0.0044,right_engine
-0.2308,0.7974,-0.4013,-0.0035,right_engine
-0.2349,0.7973,-0.3943,-0.0120,right_engine
-0.2389,0.7971,-0.3876,-0.0208,right_engine
-0.2429,0.7967,-0.3816,-0.0291,right_engine
-0.2468,0.7961,-0.3760,-0.0375,right_engine
-0.2508,0.7954,-0.3761,-0.0418,nothing
-0.2547,0.7947,-0.3762,-0.0462,nothing
-0.2587,0.7939,-0.3839,-0.0443,left_engine
-0.2627,0.7932,-0.3916,-0.0427,left_engine
-0.2668,0.7925,-0.3968,-0.0425,left_engine
-0.2709,0.7917,-0.4036,-0.0400,left_engine
-0.2751,0.7910,-0.4095,-0.0380,left_engine
-0.2793,0.7903,-0.4151,-0.0377,left_engine
-0.2835,0.7896,-0.4214,-0.0363,left_engine
-0.2878,0.7888,-0.4282,-0.0338,left_engine
-0.2922,0.7881,-0.4346,-0.0324,left_engine
-0.2966,0.7874,-0.4417,-0.0300,left_engine
-0.3010,0.7867,-0.4464,-0.0299,left_engine
-0.3055,0.7860,-0.4512,-0.0286,left_engine
-0.3100,0.7853,-0.4574,-0.0266,left_engine
-0.3146,0.7846,-0.4628,-0.0266,left_engine
-0.3192,0.7838,-0.4628,-0.0309,nothing
-0.3237,0.7828,-0.4628,-0.0352,nothing
-0.3283,0.7818,-0.4628,-0.0395,nothing
-0.3329,0.7807,-0.4628,-0.0439,nothing
-0.3374,0.7795,-0.4628,-0.0482,nothing
-0.3420,0.7782,-0.4628,-0.0525,nothing
-0.3466,0.7768,-0.4629,-0.0568,nothing
-0.3511,0.7753,-0.4629,-0.0612,nothing
-0.3557,0.7737,-0.4629,-0.0655,nothing
-0.3603,0.7721,-0.4702,-0.0641,left_engine
-0.3650,0.7705,-0.4756,-0.0649,left_engine
-0.3696,0.7688,-0.4756,-0.0692,nothing
-0.3743,0.7670,-0.4756,-0.0736,nothing
-0.3789,0.7651,-0.4757,-0.0779,nothing
-0.3836,0.7630,-0.4757,-0.0822,nothing
-0.3882,0.7609,-0.4757,-0.0866,nothing
-0.3929,0.7587,-0.4757,-0.0909,nothing
-0.3975,0.7565,-0.4757,-0.0952,nothing
-0.4022,0.7542,-0.4829,-0.0948,left_engine
-0.4070,0.7518,-0.4902,-0.0951,left_engine
-0.4118,0.7495,-0.4961,-0.0964,left_engine
-0.4167,0.7471,-0.5051,-0.0964,left_engine
-0.4215,0.7446,-0.5052,-0.1007,nothing
-0.4264,0.7420,-0.5052,-0.1051,nothing
-0.4312,0.7394,-0.5053,-0.1094,nothing
-0.4361,0.7366,-0.5053,-0.1138,nothing
-0.4410,0.7338,-0.5053,-0.1182,nothing
-0.4458,0.7308,-0.5054,-0.1225,nothing
-0.4507,0.7278,-0.5054,-0.1269,nothing
-0.4554,0.7246,-0.4950,-0.1352,right_engine
-0.4601,0.7213,-0.4879,-0.1420,right_engine
-0.4648,0.7179,-0.4802,-0.1485,right_engine
-0.4693,0.7143,-0.4705,-0.1553,right_engine
-0.4739,0.7106,-0.4705,-0.1596,nothing
-0.4785,0.7068,-0.4705,-0.1640,nothing
-0.4830,0.7029,-0.4706,-0.1683,nothing
-0.4876,0.6990,-0.4706,-0.1726,nothing
-0.4921,0.6949,-0.4617,-0.1790,right_engine
-0.4965,0.6907,-0.4534,-0.1852,right_engine
-0.5009,0.6863,-0.4461,-0.1913,right_engine
-0.5052,0.6818,-0.4373,-0.1973,right_engine
-0.5094,0.6772,-0.4301,-0.2036,right_engine
-0.5136,0.6725,-0.4193,-0.2104,right_engine
-0.5177,0.6676,-0.4098,-0.2171,right_engine
-0.5217,0.6626,-0.4013,-0.2229,right_engine
-0.5256,0.6574,-0.3914,-0.2291,right_engine
-0.5295,0.6521,-0.3799,-0.2362,right_engine
-0.5332,0.6467,-0.3691,-0.2433,right_engine
-0.5370,0.6411,-0.3691,-0.2476,nothing
-0.5408,0.6355,-0.3691,-0.2519,nothing
-0.5444,0.6297,-0.3579,-0.2589,right_engine
-0.5480,0.6238,-0.3471,-0.2658,right_engine
-0.5515,0.6178,-0.3373,-0.2728,right_engine
-0.5550,0.6116,-0.3296,-0.2792,right_engine
-0.5583,0.6052,-0.3197,-0.2858,right_engine
-0.5616,0.5988,-0.3095,-0.2936,right_engine
-0.5648,0.5922,-0.3012,-0.3003,right_engine
-0.5680,0.5854,-0.2911,-0.3077,right_engine
-0.5710,0.5785,-0.2814,-0.3154,right_engine
-0.5740,0.5714,-0.2716,-0.3230,right_engine
-0.5769,0.5643,-0.2646,-0.3306,right_engine
-0.5798,0.5569,-0.2573,-0.3383,right_engine
-0.5826,0.5494,-0.2506,-0.3458,right_engine
-0.5854,0.5419,-0.2507,-0.3502,nothing
-0.5881,0.5342,-0.2508,-0.3546,nothing
-0.5909,0.5265,-0.2509,-0.3590,nothing
-0.5932,0.5192,-0.2037,-0.3405,main_engine
-0.5948,0.5128,-0.1385,-0.3015,main_engine
-0.5957,0.5072,-0.0596,-0.2657,main_engine
-0.5958,0.5021,0.0107,-0.2427,main_engine
-0.5952,0.4977,0.0815,-0.2132,main_engine
-0.5939,0.4936,0.1435,-0.1986,main_engine
-0.5922,0.4896,0.1894,-0.1946,main_engine
-0.5902,0.4860,0.2231,-0.1792,main_engine
-0.5875,0.4826,0.2869,-0.1657,main_engine
-0.5843,0.4798,0.3263,-0.1438,main_engine
-0.5806,0.4773,0.3862,-0.1272,main_engine
-0.5762,0.4751,0.4535,-0.1179,main_engine
-0.5713,0.4733,0.5087,-0.0989,main_engine
-0.5657,0.4721,0.5734,-0.0714,main_engine
-0.5595,0.4714,0.6248,-0.0529,main_engine
-0.5527,0.4709,0.6920,-0.0437,main_engine
-0.5453,0.4707,0.7495,-0.0287,main_engine
-0.5379,0.4704,0.7494,-0.0331,nothing
-0.5306,0.4702,0.7461,-0.0308,left_engine
-0.5232,0.4699,0.7447,-0.0299,left_engine
-0.5158,0.4697,0.7430,-0.0278,left_engine
-0.5084,0.4695,0.7411,-0.0249,left_engine
-0.5010,0.4693,0.7392,-0.0212,left_engine
-0.4937,0.4691,0.7382,-0.0177,left_engine
-0.4863,0.4690,0.7378,-0.0151,left_engine
-0.4790,0.4689,0.7367,-0.0128,left_engine
-0.4716,0.4688,0.7360,-0.0102,left_engine
-0.4643,0.4687,0.7352,-0.0094,left_engine
-0.4569,0.4686,0.7343,-0.0060,left_engine
-0.4496,0.4686,0.7331,-0.0032,left_engine
-0.4423,0.4686,0.7328,0.0001,left_engine
-0.4349,0.4685,0.7328,0.0019,left_engine
-0.4276,0.4685,0.7314,0.0037,left_engine
-0.4203,0.4686,0.7301,0.0075,left_engine
-0.4130,0.4686,0.7297,0.0114,left_engine
-0.4057,0.4687,0.7292,0.0148,left_engine
-0.3984,0.4689,0.7277,0.0170,left_engine
-0.3911,0.4689,0.7277,0.0127,nothing
-0.3838,0.4689,0.7254,0.0159,left_engine
-0.3765,0.4690,0.7235,0.0182,left_engine
-0.3692,0.4690,0.7234,0.0138,nothing
-0.3620,0.4688,0.7233,0.0095,nothing
-0.3547,0.4686,0.7233,0.0052,nothing
-0.3474,0.4683,0.7232,0.0008,nothing
-0.3401,0.4679,0.7231,-0.0035,nothing
-0.3328,0.4674,0.7231,-0.0078,nothing
-0.3255,0.4668,0.7230,-0.0122,nothing
-0.3182,0.4661,0.7229,-0.0165,nothing
-0.3108,0.4653,0.7229,-0.0208,nothing
-0.3035,0.4644,0.7228,-0.0252,nothing
-0.2962,0.4634,0.7228,-0.0295,nothing
-0.2889,0.4623,0.7227,-0.0338,nothing
-0.2815,0.4612,0.7226,-0.0382,nothing
-0.2742,0.4599,0.7226,-0.0425,nothing
-0.2668,0.4586,0.7225,-0.0469,nothing
-0.2595,0.4571,0.7225,-0.0512,nothing
-0.2521,0.4556,0.7224,-0.0556,nothing
-0.2448,0.4539,0.7223,-0.0599,nothing
-0.2374,0.4522,0.7223,-0.0642,nothing
-0.2301,0.4504,0.7222,-0.0686,nothing
-0.2227,0.4485,0.7222,-0.0729,nothing
-0.2153,0.4464,0.7221,-0.0773,nothing
-0.2080,0.4443,0.7221,-0.0816,nothing
-0.2006,0.4422,0.7220,-0.0860,nothing
-0.1932,0.4399,0.7220,-0.0903,nothing
-0.1858,0.4375,0.7219,-0.0947,nothing
-0.1784,0.4350,0.7219,-0.0990,nothing
-0.1711,0.4325,0.7218,-0.1034,nothing
-0.1637,0.4298,0.7218,-0.1077,nothing
-0.1563,0.4271,0.7217,-0.1121,nothing
-0.1489,0.4242,0.7217,-0.1164,nothing
-0.1415,0.4213,0.7216,-0.1208,nothing
-0.1341,0.4183,0.7216,-0.1252,nothing
-0.1267,0.4151,0.7216,-0.1295,nothing
-0.1192,0.4119,0.7215,-0.1339,nothing
-0.1118,0.4086,0.7215,-0.1382,nothing
-0.1044,0.4053,0.7215,-0.1426,nothing
-0.0970,0.4018,0.7214,-0.1469,nothing
-0.0896,0.3982,0.7214,-0.1513,nothing
-0.0822,0.3946,0.7214,-0.1557,nothing
-0.0747,0.3908,0.7213,-0.1600,nothing
-0.0673,0.3870,0.7213,-0.1644,nothing
-0.0599,0.3830,0.7213,-0.1687,nothing
-0.0525,0.3790,0.7212,-0.1731,nothing
-0.0450,0.3749,0.7212,-0.1775,nothing
-0.0376,0.3707,0.7212,-0.1818,nothing
-0.0302,0.3664,0.7212,-0.1862,nothing
-0.0227,0.3620,0.7212,-0.1906,nothing
-0.0153,0.3575,0.7211,-0.1949,nothing
-0.0079,0.3530,0.7211,-0.1993,nothing
-0.0004,0.3483,0.7292,-0.2049,right_engine
0.0072,0.3435,0.7369,-0.2106,right_engine
0.0149,0.3386,0.7489,-0.2161,right_engine
0.0226,0.3335,0.7592,-0.2218,right_engine
0.0304,0.3284,0.7708,-0.2272,right_engine
0.0383,0.3232,0.7708,-0.2315,nothing
0.0461,0.3178,0.7708,-0.2359,nothing
0.0540,0.3124,0.7708,-0.2402,nothing
0.0618,0.3069,0.7708,-0.2445,nothing
0.0697,0.3013,0.7791,-0.2490,right_engine
0.0777,0.2956,0.7894,-0.2533,right_engine
0.0857,0.2898,0.7981,-0.2579,right_engine
0.0939,0.2838,0.8091,-0.2627,right_engine
0.1020,0.2778,0.8091,-0.2670,nothing
0.1102,0.2717,0.8091,-0.2713,nothing
0.1183,0.2655,0.8091,-0.2756,nothing
0.1264,0.2592,0.8091,-0.2799,nothing
0.1346,0.2528,0.8091,-0.2843,nothing
0.1427,0.2463,0.8091,-0.2886,nothing
0.1509,0.2397,0.8091,-0.2929,nothing
0.1590,0.2330,0.8091,-0.2972,nothing
0.1672,0.2263,0.8091,-0.3016,nothing
0.1753,0.2194,0.8091,-0.3059,nothing
0.1834,0.2124,0.8091,-0.3102,nothing
0.1916,0.2053,0.8091,-0.3145,nothing
0.1997,0.1981,0.8091,-0.3188,nothing
0.2079,0.1909,0.8091,-0.3232,nothing
0.2160,0.1835,0.8091,-0.3275,nothing
0.2242,0.1760,0.8091,-0.3318,nothing
0.2323,0.1685,0.8091,-0.3361,nothing
0.2404,0.1608,0.8091,-0.3405,nothing
0.2486,0.1531,0.8091,-0.3448,nothing
0.2567,0.1452,0.8091,-0.3491,nothing
0.2649,0.1373,0.8091,-0.3534,nothing
0.2730,0.1292,0.8091,-0.3577,nothing
0.2812,0.1211,0.8091,-0.3621,nothing
0.2893,0.1128,0.8091,-0.3664,nothing
0.2974,0.1045,0.8091,-0.3707,nothing
0.3056,0.0961,0.8091,-0.3750,nothing
0.3137,0.0875,0.8091,-0.3794,nothing
0.3219,0.0789,0.8091,-0.3837,nothing
0.3300,0.0702,0.8091,-0.3880,nothing
0.3381,0.0614,0.8091,-0.3923,nothing
0.3463,0.0525,0.8091,-0.3966,nothing
0.3544,0.0434,0.8091,-0.4010,nothing
0.3626,0.0343,0.8091,-0.4053,nothing
0.3707,0.0251,0.8091,-0.4096,nothing
0.3789,0.0158,0.8091,-0.4139,nothing
0.3870,0.0064,0.8091,-0.4183,nothing
0.3951,-0.0031,0.8091,-0.4226,nothing
0.4031,-0.0120,0.8131,-0.3959,nothing
0.4109,-0.0205,0.8117,-0.3728,nothing
0.4184,-0.0284,0.8029,-0.3521,left_engine
0.4257,-0.0360,0.7951,-0.3359,left_engine
0.4329,-0.0425,0.7732,-0.2942,left_engine
0.4400,-0.0483,0.7575,-0.2587,left_engine
0.4471,-0.0532,0.7453,-0.2237,left_engine
0.4542,-0.0574,0.7295,-0.1864,left_engine
0.4612,-0.0607,0.7171,-0.1483,left_engine
0.4680,-0.0630,0.7015,-0.1083,left_engine
0.4749,-0.0636,0.6821,-0.0289,left_engine
0.0148,1.4213,0.7464,0.2282,nothing
0.0221,1.4263,0.7465,0.2239,nothing
0.0295,1.4312,0.7465,0.2195,nothing
0.0369,1.4361,0.7465,0.2152,nothing
0.0443,1.4408,0.7465,0.2109,nothing
0.0517,1.4455,0.7466,0.2066,nothing
0.0590,1.4501,0.7466,0.2022,nothing
0.0664,1.4545,0.7466,0.1979,nothing
0.0738,1.4589,0.7466,0.1936,nothing
0.0812,1.4632,0.7467,0.1893,nothing
0.0886,1.4673,0.7467,0.1849,nothing
0.0960,1.4714,0.7467,0.1806,nothing
0.1033,1.4754,0.7467,0.1763,nothing
0.1107,1.4793,0.7468,0.1719,nothing
0.1181,1.4831,0.7468,0.1676,nothing
0.1255,1.4867,0.7468,0.1633,nothing
0.1329,1.4903,0.7468,0.1590,nothing
0.1403,1.4938,0.7469,0.1546,nothing
0.1476,1.4972,0.7469,0.1503,nothing
0.1550,1.5005,0.7469,0.1460,nothing
0.1624,1.5038,0.7469,0.1416,nothing
0.1698,1.5069,0.7469,0.1373,nothing
0.1772,1.5099,0.7470,0.1330,nothing
0.1846,1.5128,0.7470,0.1286,nothing
0.1920,1.5156,0.7466,0.1239,nothing
0.1993,1.5183,0.7467,0.1191,nothing
0.2067,1.5209,0.7467,0.1147,nothing
0.2141,1.5235,0.7467,0.1104,nothing
0.2215,1.5259,0.7467,0.1061,nothing
0.2289,1.5282,0.7467,0.1018,nothing
0.2363,1.5304,0.7467,0.0974,nothing
0.2437,1.5325,0.7467,0.0931,nothing
0.2510,1.5346,0.7467,0.0888,nothing
0.2584,1.5365,0.7467,0.0844,nothing
0.2658,1.5384,0.7467,0.0801,nothing
0.2732,1.5401,0.7467,0.0758,nothing
0.2806,1.5417,0.7467,0.0715,nothing
0.2880,1.5433,0.7467,0.0671,nothing
0.2954,1.5448,0.7467,0.0628,nothing
0.3027,1.5461,0.7467,0.0585,nothing
0.3101,1.5474,0.7467,0.0542,nothing
0.3175,1.5485,0.7467,0.0498,nothing
0.3249,1.5496,0.7467,0.0455,nothing
0.3323,1.5506,0.7467,0.0412,nothing
0.3397,1.5515,0.7467,0.0369,nothing
0.3471,1.5522,0.7467,0.0325,nothing
0.3545,1.5529,0.7467,0.0282,nothing
0.3619,1.5535,0.7466,0.0239,nothing
0.3692,1.5540,0.7466,0.0196,nothing
0.3766,1.5544,0.7466,0.0152,nothing
0.3840,1.5547,0.7466,0.0109,nothing
0.3914,1.5549,0.7466,0.0066,nothing
0.3988,1.5550,0.7466,0.0023,nothing
0.4062,1.5550,0.7466,-0.0021,nothing
0.4136,1.5549,0.7466,-0.0064,nothing
0.4210,1.5547,0.7466,-0.0107,nothing
0.4284,1.5545,0.7466,-0.0150,nothing
0.4358,1.5541,0.7466,-0.0194,nothing
0.4431,1.5536,0.7466,-0.0237,nothing
0.4505,1.5530,0.7466,-0.0280,nothing
0.4579,1.5524,0.7466,-0.0323,nothing
0.4653,1.5516,0.7466,-0.0367,nothing
0.4727,1.5508,0.7466,-0.0410,nothing
0.4801,1.5498,0.7466,-0.0453,nothing
0.4875,1.5487,0.7466,-0.0496,nothing
0.4949,1.5476,0.7466,-0.0540,nothing
0.5023,1.5464,0.7466,-0.0583,nothing
0.5097,1.5450,0.7466,-0.0626,nothing
0.5171,1.5436,0.7466,-0.0669,nothing
0.5245,1.5420,0.7466,-0.0713,nothing
0.5319,1.5404,0.7466,-0.0756,nothing
0.5393,1.5387,0.7465,-0.0799,nothing
0.5467,1.5369,0.7465,-0.0842,nothing
0.5541,1.5349,0.7465,-0.0886,nothing
0.5615,1.5329,0.7465,-0.0929,nothing
0.5689,1.5308,0.7465,-0.0972,nothing
0.5763,1.5286,0.7465,-0.1015,nothing
0.5837,1.5263,0.7465,-0.1059,nothing
0.5911,1.5239,0.7465,-0.1102,nothing
0.5985,1.5214,0.7465,-0.1145,nothing
0.6059,1.5188,0.7465,-0.1188,nothing
0.6133,1.5161,0.7465,-0.1232,nothing
0.6207,1.5133,0.7465,-0.1275,nothing
0.6281,1.5105,0.7465,-0.1318,nothing
0.6355,1.5075,0.7465,-0.1361,nothing
0.6429,1.5044,0.7465,-0.1405,nothing
0.6503,1.5012,0.7465,-0.1448,nothing
0.6577,1.4980,0.7465,-0.1491,nothing
0.6651,1.4946,0.7465,-0.1534,nothing
0.6725,1.4911,0.7464,-0.1578,nothing
0.6799,1.4876,0.7464,-0.1621,nothing
0.6873,1.4839,0.7464,-0.1664,nothing
0.6947,1.4802,0.7464,-0.1707,nothing
0.7021,1.4763,0.7464,-0.1751,nothing
0.7095,1.4724,0.7464,-0.1794,nothing
0.7169,1.4683,0.7464,-0.1837,nothing
0.7243,1.4642,0.7464,-0.1880,nothing
0.7317,1.4599,0.7464,-0.1923,nothing
0.7391,1.4556,0.7464,-0.1967,nothing
0.7465,1.4512,0.7464,-0.2010,nothing
0.7539,1.4467,0.7464,-0.2053,nothing
0.7613,1.4420,0.7464,-0.2096,nothing
0.7687,1.4373,0.7464,-0.2140,nothing
0.7762,1.4325,0.7464,-0.2183,nothing
0.7836,1.4276,0.7464,-0.2226,nothing
0.7910,1.4226,0.7463,-0.2269,nothing
0.7984,1.4175,0.7463,-0.2313,nothing
0.8058,1.4123,0.7463,-0.2356,nothing
0.8132,1.4070,0.7463,-0.2399,nothing
0.8206,1.4016,0.7463,-0.2442,nothing
0.8280,1.3961,0.7463,-0.2486,nothing
0.8354,1.3905,0.7463,-0.2529,nothing
0.8429,1.3848,0.7463,-0.2572,nothing
0.8503,1.3790,0.7463,-0.2615,nothing
0.8577,1.3732,0.7463,-0.2658,nothing
0.8651,1.3672,0.7463,-0.2702,nothing
0.8725,1.3611,0.7463,-0.2745,nothing
0.8799,1.3550,0.7463,-0.2788,nothing
0.8873,1.3487,0.7463,-0.2831,nothing
0.8948,1.3423,0.7462,-0.2875,nothing
0.9022,1.3359,0.7462,-0.2918,nothing
0.9096,1.3293,0.7462,-0.2961,nothing
0.9170,1.3227,0.7462,-0.3004,nothing
0.9244,1.3159,0.7462,-0.3048,nothing
0.9319,1.3091,0.7462,-0.3091,nothing
0.9393,1.3021,0.7462,-0.3134,nothing
0.9467,1.2951,0.7462,-0.3177,nothing
0.9541,1.2880,0.7462,-0.3220,nothing
0.9615,1.2807,0.7462,-0.3264,nothing
0.9690,1.2734,0.7462,-0.3307,nothing
0.9764,1.2660,0.7462,-0.3350,nothing
0.9838,1.2585,0.7462,-0.3393,nothing
0.9912,1.2508,0.7461,-0.3437,nothing
0.9987,1.2431,0.7461,-0.3480,nothing
1.0061,1.2353,0.7461,-0.3523,nothing
0.0000,1.4228,0.0001,0.2626,nothing
0.0000,1.4286,0.0001,0.2583,nothing
0.0000,1.4343,0.0001,0.2540,nothing
0.0000,1.4400,0.0001,0.2496,nothing
0.0000,1.4455,0.0001,0.2453,nothing
0.0000,1.4509,0.0001,0.2410,nothing
0.0000,1.4562,0.0001,0.2367,nothing
0.0000,1.4614,0.0001,0.2323,nothing
0.0000,1.4666,0.0001,0.2280,nothing
0.0000,1.4716,0.0001,0.2237,nothing
0.0000,1.4765,0.0001,0.2194,nothing
0.0000,1.4814,0.0001,0.2151,nothing
0.0000,1.4861,0.0001,0.2107,nothing
0.0000,1.4908,0.0001,0.2064,nothing
0.0000,1.4953,0.0001,0.2021,nothing
0.0000,1.4998,0.0001,0.1978,nothing
0.0000,1.5041,0.0001,0.1934,nothing
0.0000,1.5084,0.0001,0.1891,nothing
0.0000,1.5125,0.0001,0.1848,nothing
0.0000,1.5166,0.0001,0.1805,nothing
0.0000,1.5206,0.0001,0.1762,nothing
0.0000,1.5244,0.0001,0.1718,nothing
0.0000,1.5282,0.0001,0.1675,nothing
0.0000,1.5319,0.0001,0.1632,nothing
0.0000,1.5354,0.0001,0.1579,nothing
0.0000,1.5389,0.0001,0.1536,nothing
0.0000,1.5422,0.0001,0.1493,nothing
0.0000,1.5455,0.0001,0.1450,nothing
0.0000,1.5487,0.0001,0.1406,nothing
0.0000,1.5517,0.0001,0.1363,nothing
0.0000,1.5547,0.0001,0.1320,nothing
0.0000,1.5576,0.0001,0.1277,nothing
0.0000,1.5603,0.0001,0.1234,nothing
0.0000,1.5630,0.0001,0.1190,nothing
0.0000,1.5656,0.0001,0.1147,nothing
0.0000,1.5681,0.0001,0.1104,nothing
0.0000,1.5705,0.0001,0.1061,nothing
0.0000,1.5728,0.0001,0.1018,nothing
0.0000,1.5750,0.0001,0.0974,nothing
0.0000,1.5771,0.0001,0.0931,nothing
0.0000,1.5791,0.0001,0.0888,nothing
0.0000,1.5810,0.0001,0.0845,nothing
0.0000,1.5828,0.0001,0.0802,nothing
0.0000,1.5845,0.0001,0.0758,nothing
0.0000,1.5861,0.0001,0.0715,nothing
0.0000,1.5876,0.0001,0.0672,nothing
0.0000,1.5890,0.0001,0.0629,nothing
0.0000,1.5903,0.0001,0.0586,nothing
0.0000,1.5915,0.0001,0.0542,nothing
0.0000,1.5927,0.0001,0.0499,nothing
0.0000,1.5937,0.0001,0.0456,nothing
0.0000,1.5946,0.0001,0.0413,nothing
0.0000,1.5954,0.0001,0.0370,nothing
0.0000,1.5962,0.0001,0.0326,nothing
0.0000,1.5968,0.0001,0.0283,nothing
0.0000,1.5974,0.0001,0.0240,nothing
0.0000,1.5978,0.0001,0.0197,nothing
0.0000,1.5981,0.0001,0.0154,nothing
0.0000,1.5984,0.0001,0.0110,nothing
0.0000,1.5985,0.0001,0.0067,nothing
0.0000,1.5986,0.0001,0.0024,nothing
0.0000,1.5986,0.0001,-0.0019,nothing
0.0000,1.5984,0.0001,-0.0062,nothing
0.0000,1.5982,0.0001,-0.0106,nothing
0.0000,1.5978,0.0001,-0.0149,nothing
0.0000,1.5974,0.0001,-0.0192,nothing
0.0000,1.5969,0.0001,-0.0235,nothing
0.0000,1.5963,0.0001,-0.0278,nothing
0.0000,1.5955,0.0001,-0.0322,nothing
0.0000,1.5947,0.0001,-0.0365,nothing
0.0000,1.5938,0.0001,-0.0408,nothing
0.0000,1.5928,0.0001,-0.0451,nothing
0.0000,1.5917,0.0001,-0.0494,nothing
0.0000,1.5905,0.0001,-0.0538,nothing
0.0001,1.5891,0.0001,-0.0581,nothing
0.0001,1.5877,0.0001,-0.0624,nothing
0.0001,1.5862,0.0001,-0.0667,nothing
0.0001,1.5846,0.0001,-0.0710,nothing
0.0001,1.5829,0.0001,-0.0754,nothing
0.0001,1.5812,0.0001,-0.0797,nothing
0.0001,1.5793,0.0001,-0.0840,nothing
0.0001,1.5773,0.0001,-0.0883,nothing
0.0001,1.5752,0.0001,-0.0926,nothing
0.0001,1.5730,0.0001,-0.0970,nothing
0.0001,1.5707,0.0001,-0.1013,nothing
0.0001,1.5684,0.0001,-0.1056,nothing
0.0001,1.5659,0.0001,-0.1099,nothing
0.0001,1.5633,0.0001,-0.1142,nothing
0.0001,1.5606,0.0001,-0.1186,nothing
0.0001,1.5579,0.0001,-0.1229,nothing
0.0001,1.5550,0.0001,-0.1272,nothing
0.0001,1.5521,0.0001,-0.1315,nothing
0.0001,1.5490,0.0001,-0.1358,nothing
0.0001,1.5459,0.0001,-0.1402,nothing
0.0001,1.5426,0.0001,-0.1445,nothing
0.0001,1.5393,0.0001,-0.1488,nothing
0.0001,1.5358,0.0001,-0.1531,nothing
0.0001,1.5323,0.0001,-0.1574,nothing
0.0001,1.5286,0.0001,-0.1618,nothing
0.0001,1.5249,0.0001,-0.1661,nothing
0.0001,1.5211,0.0001,-0.1704,nothing
0.0001,1.5171,0.0001,-0.1747,nothing
0.0001,1.5131,0.0001,-0.1790,nothing
0.0001,1.5090,0.0001,-0.1834,nothing
0.0001,1.5047,0.0001,-0.1877,nothing
0.0001,1.5004,0.0001,-0.1920,nothing
0.0001,1.4960,0.0001,-0.1963,nothing
0.0001,1.4915,0.0001,-0.2006,nothing
0.0001,1.4869,0.0001,-0.2050,nothing
0.0001,1.4822,0.0001,-0.2093,nothing
0.0001,1.4774,0.0001,-0.2136,nothing
0.0001,1.4725,0.0001,-0.2179,nothing
0.0001,1.4675,0.0001,-0.2222,nothing
0.0001,1.4624,0.0001,-0.2266,nothing
0.0001,1.4572,0.0001,-0.2309,nothing
0.0001,1.4519,0.0001,-0.2352,nothing
0.0001,1.4465,0.0001,-0.2395,nothing
0.0001,1.4410,0.0001,-0.2438,nothing
0.0001,1.4354,0.0001,-0.2482,nothing
0.0001,1.4297,0.0001,-0.2525,nothing
0.0001,1.4240,0.0001,-0.2568,nothing
0.0001,1.4181,0.0001,-0.2611,nothing
0.0001,1.4121,0.0001,-0.2654,nothing
0.0001,1.4060,0.0001,-0.2698,nothing
0.0001,1.3999,0.0001,-0.2741,nothing
0.0001,1.3936,0.0001,-0.2784,nothing
0.0001,1.3873,0.0001,-0.2827,nothing
0.0001,1.3808,0.0001,-0.2870,nothing
0.0001,1.3742,0.0001,-0.2914,nothing
0.0001,1.3676,0.0001,-0.2957,nothing
0.0001,1.3608,0.0001,-0.3000,nothing
0.0001,1.3540,0.0001,-0.3043,nothing
0.0001,1.3470,0.0001,-0.3086,nothing
0.0001,1.3400,0.0001,-0.3130,nothing
0.0001,1.3329,0.0001,-0.3173,nothing
0.0001,1.3256,0.0001,-0.3216,nothing
0.0001,1.3183,0.0001,-0.3259,nothing
0.0001,1.3109,0.0001,-0.3302,nothing
0.0001,1.3033,0.0001,-0.3346,nothing
0.0001,1.2957,0.0001,-0.3389,nothing
0.0001,1.2880,0.0001,-0.3432,nothing
0.0001,1.2802,0.0001,-0.3475,nothing
0.0001,1.2723,0.0001,-0.3518,nothing
0.0001,1.2642,0.0001,-0.3562,nothing
0.0001,1.2561,0.0001,-0.3605,nothing
0.0001,1.2479,0.0001,-0.3648,nothing
0.0001,1.2396,0.0001,-0.3691,nothing
0.0001,1.2312,0.0001,-0.3734,nothing
0.0001,1.2227,0.0001,-0.3778,nothing
0.0001,1.2141,0.0001,-0.3821,nothing
0.0001,1.2054,0.0001,-0.3864,nothing
0.0001,1.1966,0.0001,-0.3907,nothing
0.0001,1.1877,0.0001,-0.3950,nothing
0.0001,1.1788,0.0001,-0.3994,nothing
0.0001,1.1697,0.0001,-0.4037,nothing
0.0001,1.1605,0.0001,-0.4080,nothing
0.0001,1.1512,0.0001,-0.4123,nothing
0.0001,1.1418,0.0001,-0.4166,nothing
0.0001,1.1324,0.0001,-0.4210,nothing
0.0001,1.1228,0.0001,-0.4253,nothing
0.0001,1.1131,0.0001,-0.4296,nothing
0.0001,1.1034,0.0001,-0.4339,nothing
0.0001,1.0935,0.0001,-0.4382,nothing
0.0001,1.0836,0.0001,-0.4426,nothing
0.0001,1.0735,0.0001,-0.4469,nothing
0.0001,1.0633,0.0001,-0.4512,nothing
0.0001,1.0531,0.0001,-0.4555,nothing
0.0001,1.0428,0.0001,-0.4598,nothing
0.0001,1.0323,0.0001,-0.4642,nothing
0.0001,1.0218,0.0001,-0.4685,nothing
0.0001,1.0111,0.0001,-0.4728,nothing
0.0001,1.0004,0.0001,-0.4771,nothing
0.0001,0.9896,0.0001,-0.4814,nothing
0.0001,0.9786,0.0001,-0.4858,nothing
0.0001,0.9676,0.0001,-0.4901,nothing
0.0001,0.9565,0.0001,-0.4944,nothing
0.0001,0.9453,0.0001,-0.4987,nothing
0.0001,0.9339,0.0001,-0.5030,nothing
0.0001,0.9225,0.0001,-0.5074,nothing
0.0001,0.9110,0.0001,-0.5117,nothing
0.0001,0.8994,0.0001,-0.5160,nothing
0.0001,0.8877,0.0001,-0.5203,nothing
0.0001,0.8759,0.0001,-0.5246,nothing
0.0001,0.8640,0.0001,-0.5290,nothing
0.0002,0.8527,0.0087,-0.5033,main_engine
0.0003,0.8425,0.0090,-0.4528,main_engine
0.0005,0.8331,0.0188,-0.4151,main_engine
0.0008,0.8247,0.0293,-0.3758,main_engine
0.0011,0.8161,0.0293,-0.3801,nothing
0.0014,0.8075,0.0293,-0.3844,nothing
0.0017,0.7987,0.0293,-0.3887,nothing
0.0020,0.7899,0.0293,-0.3930,nothing
0.0024,0.7810,0.0293,-0.3974,nothing
0.0027,0.7719,0.0293,-0.4017,nothing
0.0030,0.7628,0.0293,-0.4060,nothing
0.0033,0.7536,0.0293,-0.4103,nothing
0.0036,0.7442,0.0293,-0.4146,nothing
0.0039,0.7348,0.0293,-0.4190,nothing
0.0042,0.7253,0.0293,-0.4233,nothing
0.0045,0.7157,0.0293,-0.4276,nothing
0.0050,0.7074,0.0438,-0.3659,main_engine
0.0055,0.6999,0.0486,-0.3321,main_engine
0.0058,0.6934,0.0324,-0.2902,main_engine
0.0061,0.6879,0.0217,-0.2442,main_engine
0.0061,0.6829,0.0074,-0.2241,main_engine
0.0062,0.6788,0.0042,-0.1815,main_engine
0.0062,0.6757,-0.0006,-0.1387,main_engine
0.0060,0.6733,-0.0138,-0.1040,main_engine
0.0058,0.6719,-0.0209,-0.0650,main_engine
0.0055,0.6713,-0.0289,-0.0251,main_engine
0.0052,0.6707,-0.0289,-0.0294,nothing
0.0049,0.6699,-0.0289,-0.0337,nothing
0.0047,0.6690,-0.0289,-0.0380,nothing
0.0044,0.6681,-0.0289,-0.0424,nothing
0.0041,0.6670,-0.0289,-0.0467,nothing
0.0038,0.6659,-0.0289,-0.0510,nothing
0.0035,0.6646,-0.0289,-0.0553,nothing
0.0032,0.6633,-0.0289,-0.0596,nothing
0.0029,0.6619,-0.0289,-0.0640,nothing
0.0026,0.6603,-0.0289,-0.0683,nothing
0.0023,0.6587,-0.0289,-0.0726,nothing
0.0020,0.6570,-0.0289,-0.0769,nothing
0.0017,0.6551,-0.0289,-0.0812,nothing
0.0014,0.6532,-0.0289,-0.0856,nothing
0.0011,0.6512,-0.0289,-0.0899,nothing
0.0008,0.6491,-0.0289,-0.0942,nothing
0.0005,0.6468,-0.0289,-0.0985,nothing
0.0002,0.6445,-0.0289,-0.1028,nothing
-0.0001,0.6421,-0.0289,-0.1072,nothing
-0.0004,0.6396,-0.0289,-0.1115,nothing
-0.0006,0.6370,-0.0289,-0.1158,nothing
-0.0009,0.6343,-0.0289,-0.1201,nothing
-0.0012,0.6315,-0.0289,-0.1244,nothing
-0.0015,0.6286,-0.0289,-0.1288,nothing
-0.0018,0.6256,-0.0289,-0.1331,nothing
-0.0021,0.6225,-0.0289,-0.1374,nothing
-0.0024,0.6193,-0.0289,-0.1417,nothing
-0.0027,0.6160,-0.0289,-0.1460,nothing
-0.0030,0.6127,-0.0289,-0.1504,nothing
-0.0033,0.6092,-0.0289,-0.1547,nothing
-0.0036,0.6056,-0.0289,-0.1590,nothing
-0.0039,0.6019,-0.0289,-0.1633,nothing
-0.0042,0.5982,-0.0289,-0.1676,nothing
-0.0045,0.5943,-0.0289,-0.1720,nothing
-0.0048,0.5903,-0.0289,-0.1763,nothing
-0.0051,0.5863,-0.0289,-0.1806,nothing
-0.0054,0.5821,-0.0289,-0.1849,nothing
-0.0057,0.5778,-0.0289,-0.1892,nothing
-0.0060,0.5735,-0.0289,-0.1936,nothing
-0.0062,0.5690,-0.0289,-0.1979,nothing
-0.0065,0.5645,-0.0289,-0.2022,nothing
-0.0068,0.5598,-0.0289,-0.2065,nothing
-0.0071,0.5551,-0.0289,-0.2108,nothing
-0.0074,0.5503,-0.0289,-0.2152,nothing
-0.0077,0.5453,-0.0289,-0.2195,nothing
-0.0080,0.5403,-0.0289,-0.2238,nothing
-0.0083,0.5351,-0.0289,-0.2281,nothing
-0.0086,0.5299,-0.0289,-0.2324,nothing
-0.0089,0.5246,-0.0289,-0.2368,nothing
-0.0092,0.5192,-0.0289,-0.2411,nothing
-0.0095,0.5136,-0.0289,-0.2454,nothing
-0.0098,0.5080,-0.0289,-0.2497,nothing
-0.0101,0.5023,-0.0289,-0.2540,nothing
-0.0104,0.4965,-0.0289,-0.2584,nothing
-0.0107,0.4906,-0.0289,-0.2627,nothing
-0.0110,0.4846,-0.0289,-0.2670,nothing
-0.0113,0.4785,-0.0289,-0.2713,nothing
-0.0116,0.4723,-0.0289,-0.2756,nothing
-0.0118,0.4660,-0.0289,-0.2800,nothing
-0.0121,0.4596,-0.0289,-0.2843,nothing
-0.0124,0.4531,-0.0289,-0.2886,nothing
-0.0127,0.4465,-0.0289,-0.2929,nothing
-0.0130,0.4398,-0.0289,-0.2972,nothing
-0.0133,0.4330,-0.0289,-0.3016,nothing
-0.0136,0.4261,-0.0289,-0.3059,nothing
-0.0139,0.4192,-0.0289,-0.3102,nothing
-0.0142,0.4121,-0.0289,-0.3145,nothing
-0.0145,0.4049,-0.0289,-0.3188,nothing
-0.0148,0.3976,-0.0289,-0.3232,nothing
-0.0150,0.3911,-0.0250,-0.2923,main_engine
-0.0154,0.3857,-0.0328,-0.2361,main_engine
-0.0157,0.3817,-0.0321,-0.1811,main_engine
-0.0160,0.3775,-0.0321,-0.1854,nothing
-0.0164,0.3732,-0.0321,-0.1897,nothing
-0.0167,0.3689,-0.0321,-0.1941,nothing
-0.0170,0.3644,-0.0321,-0.1984,nothing
-0.0174,0.3598,-0.0321,-0.2027,nothing
-0.0177,0.3552,-0.0321,-0.2070,nothing
-0.0180,0.3504,-0.0321,-0.2113,nothing
-0.0183,0.3456,-0.0321,-0.2157,nothing
-0.0187,0.3406,-0.0321,-0.2200,nothing
-0.0190,0.3363,-0.0302,-0.1938,main_engine
-0.0192,0.3332,-0.0262,-0.1372,main_engine
-0.0196,0.3307,-0.0383,-0.1115,main_engine
-0.0200,0.3281,-0.0383,-0.1158,nothing
-0.0204,0.3254,-0.0383,-0.1202,nothing
-0.0208,0.3226,-0.0383,-0.1245,nothing
-0.0212,0.3197,-0.0383,-0.1288,nothing
-0.0216,0.3167,-0.0383,-0.1331,nothing
-0.0220,0.3136,-0.0383,-0.1374,nothing
-0.0224,0.3104,-0.0383,-0.1418,nothing
-0.0228,0.3071,-0.0383,-0.1461,nothing
-0.0232,0.3037,-0.0383,-0.1504,nothing
-0.0236,0.3002,-0.0383,-0.1547,nothing
-0.0240,0.2967,-0.0383,-0.1590,nothing
-0.0244,0.2930,-0.0383,-0.1634,nothing
-0.0248,0.2892,-0.0383,-0.1677,nothing
-0.0252,0.2853,-0.0383,-0.1720,nothing
-0.0255,0.2827,-0.0363,-0.1160,main_engine
-0.0259,0.2800,-0.0363,-0.1203,nothing
-0.0263,0.2772,-0.0363,-0.1246,nothing
-0.0267,0.2743,-0.0363,-0.1289,nothing
-0.0270,0.2713,-0.0363,-0.1332,nothing
-0.0274,0.2682,-0.0363,-0.1376,nothing
-0.0278,0.2650,-0.0363,-0.1419,nothing
-0.0282,0.2618,-0.0363,-0.1462,nothing
-0.0285,0.2584,-0.0363,-0.1505,nothing
-0.0289,0.2549,-0.0363,-0.1548,nothing
-0.0293,0.2513,-0.0363,-0.1592,nothing
-0.0297,0.2476,-0.0363,-0.1635,nothing
-0.0301,0.2439,-0.0363,-0.1678,nothing
-0.0304,0.2400,-0.0363,-0.1721,nothing
-0.0308,0.2360,-0.0363,-0.1764,nothing
-0.0312,0.2320,-0.0363,-0.1808,nothing
-0.0316,0.2278,-0.0363,-0.1851,nothing
-0.0319,0.2235,-0.0363,-0.1894,nothing
-0.0323,0.2192,-0.0363,-0.1937,nothing
-0.0327,0.2147,-0.0363,-0.1980,nothing
-0.0331,0.2102,-0.0363,-0.2024,nothing
-0.0334,0.2055,-0.0363,-0.2067,nothing
-0.0338,0.2008,-0.0363,-0.2110,nothing
-0.0342,0.1959,-0.0363,-0.2153,nothing
-0.0346,0.1922,-0.0408,-0.1658,main_engine
-0.0350,0.1884,-0.0408,-0.1701,nothing
-0.0355,0.1845,-0.0408,-0.1744,nothing
-0.0359,0.1804,-0.0408,-0.1787,nothing
-0.0363,0.1763,-0.0408,-0.1831,nothing
-0.0367,0.1721,-0.0408,-0.1874,nothing
-0.0372,0.1678,-0.0408,-0.1917,nothing
-0.0376,0.1634,-0.0408,-0.1960,nothing
-0.0380,0.1589,-0.0408,-0.2003,nothing
-0.0384,0.1557,-0.0356,-0.1401,main_engine
-0.0388,0.1539,-0.0353,-0.0831,main_engine
-0.0390,0.1527,-0.0176,-0.0530,main_engine
-0.0393,0.1519,-0.0305,-0.0331,main_engine
-0.0396,0.1511,-0.0305,-0.0374,nothing
-0.0399,0.1502,-0.0305,-0.0417,nothing
-0.0403,0.1491,-0.0305,-0.0460,nothing
-0.0406,0.1480,-0.0305,-0.0503,nothing
-0.0409,0.1468,-0.0305,-0.0547,nothing
-0.0413,0.1454,-0.0305,-0.0590,nothing
-0.0416,0.1440,-0.0305,-0.0633,nothing
-0.0419,0.1425,-0.0305,-0.0676,nothing
-0.0423,0.1409,-0.0305,-0.0719,nothing
-0.0426,0.1392,-0.0305,-0.0763,nothing
-0.0429,0.1374,-0.0305,-0.0806,nothing
-0.0432,0.1355,-0.0305,-0.0849,nothing
-0.0436,0.1335,-0.0305,-0.0892,nothing
-0.0439,0.1314,-0.0305,-0.0935,nothing
-0.0442,0.1292,-0.0305,-0.0979,nothing
-0.0446,0.1269,-0.0305,-0.1022,nothing
-0.0449,0.1245,-0.0305,-0.1065,nothing
-0.0452,0.1220,-0.0305,-0.1108,nothing
-0.0455,0.1194,-0.0305,-0.1151,nothing
-0.0459,0.1167,-0.0305,-0.1195,nothing
-0.0462,0.1139,-0.0305,-0.1238,nothing
-0.0465,0.1111,-0.0305,-0.1281,nothing
-0.0469,0.1081,-0.0305,-0.1324,nothing
-0.0472,0.1050,-0.0305,-0.1367,nothing
-0.0475,0.1018,-0.0305,-0.1411,nothing
-0.0479,0.0986,-0.0305,-0.1454,nothing
-0.0482,0.0952,-0.0305,-0.1497,nothing
-0.0485,0.0918,-0.0305,-0.1540,nothing
-0.0488,0.0882,-0.0305,-0.1584,nothing
-0.0492,0.0845,-0.0305,-0.1627,nothing
-0.0495,0.0808,-0.0305,-0.1670,nothing
-0.0498,0.0769,-0.0305,-0.1713,nothing
-0.0502,0.0730,-0.0305,-0.1756,nothing
-0.0503,0.0695,-0.0150,-0.1577,main_engine
-0.0504,0.0672,-0.0019,-0.1013,main_engine
-0.0502,0.0662,0.0141,-0.0442,main_engine
-0.0501,0.0651,0.0141,-0.0485,nothing
-0.0500,0.0639,0.0141,-0.0529,nothing
-0.0499,0.0626,0.0141,-0.0572,nothing
-0.0498,0.0613,0.0141,-0.0615,nothing
-0.0496,0.0598,0.0141,-0.0658,nothing
-0.0495,0.0582,0.0141,-0.0701,nothing
-0.0494,0.0565,0.0141,-0.0745,nothing
-0.0493,0.0548,0.0141,-0.0788,nothing
-0.0492,0.0529,0.0141,-0.0831,nothing
-0.0490,0.0510,0.0141,-0.0874,nothing
-0.0489,0.0489,0.0141,-0.0917,nothing
-0.0488,0.0467,0.0141,-0.0961,nothing
-0.0487,0.0445,0.0141,-0.1004,nothing
-0.0486,0.0421,0.0141,-0.1047,nothing
-0.0484,0.0397,0.0141,-0.1090,nothing
-0.0483,0.0371,0.0141,-0.1134,nothing
-0.0482,0.0345,0.0141,-0.1177,nothing
-0.0481,0.0318,0.0141,-0.1220,nothing
-0.0479,0.0289,0.0141,-0.1263,nothing
-0.0478,0.0260,0.0141,-0.1306,nothing
-0.0477,0.0230,0.0141,-0.1350,nothing
-0.0475,0.0207,0.0030,-0.0995,nothing
-0.0473,0.0185,0.0010,-0.0947,nothing
-0.0471,0.0164,-0.0008,-0.0901,nothing
-0.0468,0.0144,-0.0022,-0.0887,nothing
-0.0466,0.0122,-0.0028,-0.0938,nothing
-0.0463,0.0099,-0.0028,-0.0982,nothing
-0.0461,0.0076,-0.0028,-0.1025,nothing
-0.0458,0.0052,-0.0028,-0.1069,nothing
-0.0456,0.0027,-0.0028,-0.1113,nothing
-0.0453,0.0001,-0.0028,-0.1157,nothing
-0.0451,-0.0020,0.0052,-0.0945,nothing
-0.0451,-0.0036,0.0123,-0.0691,nothing
-0.0451,-0.0047,0.0181,-0.0494,nothing
-0.0451,-0.0049,0.0174,-0.0087,nothing
-0.0450,-0.0044,0.0191,0.0234,nothing
-0.0448,-0.0032,0.0206,0.0524,nothing
-0.0445,-0.0015,0.0211,0.0741,nothing
-0.0443,0.0002,0.0195,0.0747,nothing
-0.0442,0.0017,0.0201,0.0691,nothing
-0.0440,0.0032,0.0201,0.0648,nothing
-0.0438,0.0045,0.0201,0.0605,nothing
-0.0436,0.0058,0.0201,0.0562,nothing
-0.0434,0.0070,0.0201,0.0519,nothing
-0.0432,0.0080,0.0201,0.0475,nothing
-0.0430,0.0090,0.0201,0.0432,nothing
-0.0429,0.0099,0.0201,0.0389,nothing
-0.0427,0.0107,0.0201,0.0346,nothing
-0.0425,0.0113,0.0201,0.0303,nothing
-0.0423,0.0119,0.0201,0.0259,nothing
-0.0421,0.0124,0.0201,0.0216,nothing
-0.0419,0.0128,0.0201,0.0173,nothing
-0.0417,0.0131,0.0201,0.0130,nothing
-0.0415,0.0133,0.0201,0.0087,nothing
-0.0414,0.0134,0.0201,0.0043,nothing
-0.0412,0.0134,0.0201,0.0000,nothing
-0.0410,0.0133,0.0201,-0.0043,nothing
-0.0408,0.0131,0.0201,-0.0086,nothing
-0.0406,0.0128,0.0201,-0.0129,nothing
-0.0404,0.0124,0.0201,-0.0173,nothing
-0.0402,0.0119,0.0201,-0.0216,nothing
-0.0401,0.0114,0.0201,-0.0259,nothing
-0.0399,0.0107,0.0201,-0.0302,nothing
-0.0397,0.0099,0.0201,-0.0345,nothing
-0.0395,0.0090,0.0201,-0.0389,nothing
-0.0393,0.0081,0.0201,-0.0432,nothing
-0.0391,0.0070,0.0201,-0.0475,nothing
-0.0389,0.0058,0.0201,-0.0518,nothing
-0.0388,0.0046,0.0201,-0.0561,nothing
-0.0385,0.0036,0.0155,-0.0441,nothing
-0.0383,0.0025,0.0152,-0.0475,nothing
-0.0380,0.0013,0.0149,-0.0509,nothing
-0.0378,0.0001,0.0147,-0.0544,nothing
-0.0375,-0.0012,0.0144,-0.0578,nothing
-0.0374,-0.0016,0.0116,-0.0173,nothing
-0.0373,-0.0012,0.0104,0.0178,nothing
-0.0372,-0.0009,0.0107,0.0134,nothing
-0.0372,-0.0007,0.0108,0.0099,nothing
-0.0371,-0.0005,0.0105,0.0065,nothing
-0.0370,-0.0004,0.0102,0.0031,nothing
-0.0369,-0.0004,0.0099,-0.0002,nothing
-0.0368,-0.0005,0.0097,-0.0036,nothing
-0.0367,-0.0007,0.0094,-0.0069,nothing
-0.0366,-0.0007,0.0072,-0.0001,nothing
-0.0365,-0.0007,0.0062,0.0000,nothing
-0.0365,-0.0007,0.0053,0.0000,nothing
-0.0364,-0.0007,0.0044,-0.0000,nothing
-0.0364,-0.0007,0.0035,-0.0000,nothing
-0.0364,-0.0007,0.0026,0.0000,nothing
-0.0363,-0.0007,0.0016,0.0000,nothing
-0.0363,-0.0007,0.0007,0.0000,nothing
-0.0363,-0.0007,-0.0001,0.0000,nothing
-0.0363,-0.0007,-0.0003,0.0000,nothing
-0.0363,-0.0007,-0.0002,0.0000,nothing
-0.0363,-0.0007,-0.0000,0.0000,nothing
-0.0363,-0.0007,0.0000,-0.0000,nothing
-0.0363,-0.0007,0.0000,-0.0000,nothing
-0.0363,-0.0007,0.0000,-0.0000,nothing
-0.0363,-0.0007,-0.0000,0.0000,nothing
-0.0363,-0.0007,-0.0000,0.0000,nothing
-0.0363,-0.0007,-0.0000,0.0000,nothing
-0.0363,-0.0007,0.0000,-0.0000,nothing
-0.0363,-0.0007,0.0000,-0.0000,nothing
-0.0363,-0.0007,0.0000,-0.0000,nothing
-0.0363,-0.0007,-0.0000,0.0000,nothing
-0.0363,-0.0007,-0.0000,0.0000,nothing
-0.0363,-0.0007,-0.0000,0.0000,nothing
-0.0363,-0.0007,-0.0000,-0.0000,nothing
-0.0363,-0.0007,0.0000,0.0000,nothing
-0.0363,-0.0007,0.0000,0.0000,nothing
-0.0363,-0.0007,0.0000,0.0000,nothing
-0.0363,-0.0007,-0.0000,0.0000,nothing
-0.0363,-0.0007,-0.0000,0.0000,nothing
-0.0363,-0.0007,0.0000,0.0000,nothing
0.0058,1.3936,0.2927,-0.3865,nothing
0.0087,1.3848,0.2927,-0.3909,nothing
0.0116,1.3759,0.2927,-0.3952,nothing
0.0145,1.3669,0.2927,-0.3995,nothing
0.0174,1.3578,0.2927,-0.4038,nothing
0.0203,1.3487,0.2927,-0.4081,nothing
0.0232,1.3394,0.2928,-0.4125,nothing
0.0260,1.3300,0.2928,-0.4168,nothing
0.0289,1.3205,0.2928,-0.4211,nothing
0.0318,1.3110,0.2928,-0.4254,nothing
0.0347,1.3013,0.2928,-0.4298,nothing
0.0376,1.2915,0.2928,-0.4341,nothing
0.0405,1.2817,0.2928,-0.4384,nothing
0.0434,1.2717,0.2928,-0.4427,nothing
0.0463,1.2617,0.2928,-0.4470,nothing
0.0492,1.2515,0.2928,-0.4514,nothing
0.0521,1.2412,0.2928,-0.4557,nothing
0.0550,1.2309,0.2929,-0.4600,nothing
0.0579,1.2205,0.2929,-0.4643,nothing
0.0608,1.2099,0.2929,-0.4687,nothing
0.0637,1.1993,0.2929,-0.4730,nothing
0.0666,1.1885,0.2929,-0.4773,nothing
0.0695,1.1777,0.2929,-0.4816,nothing
0.0724,1.1668,0.2929,-0.4860,nothing
0.0753,1.1557,0.2928,-0.4912,nothing
0.0782,1.1446,0.2928,-0.4956,nothing
0.0811,1.1333,0.2928,-0.4999,nothing
0.0840,1.1220,0.2928,-0.5042,nothing
0.0868,1.1106,0.2928,-0.5085,nothing
0.0897,1.0990,0.2928,-0.5128,nothing
0.0926,1.0874,0.2928,-0.5172,nothing
0.0955,1.0757,0.2928,-0.5215,nothing
0.0984,1.0638,0.2928,-0.5258,nothing
0.1013,1.0519,0.2928,-0.5301,nothing
0.1042,1.0399,0.2928,-0.5344,nothing
0.1072,1.0278,0.3030,-0.5399,right_engine
0.1103,1.0155,0.3144,-0.5447,right_engine
0.1134,1.0032,0.3225,-0.5501,right_engine
0.1166,0.9907,0.3307,-0.5551,right_engine
0.1199,0.9781,0.3411,-0.5606,right_engine
0.1232,0.9654,0.3488,-0.5660,right_engine
0.1266,0.9526,0.3603,-0.5712,right_engine
0.1302,0.9397,0.3710,-0.5767,right_engine
0.1338,0.9267,0.3827,-0.5825,right_engine
0.1375,0.9135,0.3942,-0.5882,right_engine
0.1413,0.9003,0.4021,-0.5944,right_engine
0.1451,0.8869,0.4113,-0.6009,right_engine
0.1490,0.8733,0.4210,-0.6070,right_engine
0.1530,0.8597,0.4209,-0.6114,nothing
0.1569,0.8461,0.4209,-0.6158,nothing
0.1608,0.8323,0.4208,-0.6202,nothing
0.1648,0.8184,0.4208,-0.6246,nothing
0.1687,0.8045,0.4208,-0.6290,nothing
0.1726,0.7905,0.4207,-0.6333,nothing
0.1771,0.7772,0.4709,-0.5987,main_engine
0.1821,0.7648,0.5228,-0.5616,main_engine
0.1873,0.7531,0.5437,-0.5317,main_engine
0.1927,0.7419,0.5677,-0.5073,main_engine
0.1987,0.7318,0.6216,-0.4630,main_engine
0.2051,0.7227,0.6660,-0.4171,main_engine
0.2120,0.7138,0.7064,-0.4071,main_engine
0.2194,0.7056,0.7640,-0.3795,main_engine
0.2272,0.6979,0.7989,-0.3550,main_engine
0.2357,0.6910,0.8724,-0.3185,main_engine
0.2449,0.6849,0.9353,-0.2876,main_engine
0.2545,0.6790,0.9789,-0.2732,main_engine
0.2644,0.6738,1.0079,-0.2485,main_engine
0.2749,0.6688,1.0674,-0.2332,main_engine
0.2854,0.6638,1.0673,-0.2376,nothing
0.2958,0.6588,1.0622,-0.2373,left_engine
0.3063,0.6538,1.0564,-0.2360,left_engine
0.3167,0.6487,1.0525,-0.2358,left_engine
0.3271,0.6437,1.0474,-0.2349,left_engine
0.3374,0.6387,1.0412,-0.2324,left_engine
0.3477,0.6337,1.0375,-0.2314,left_engine
0.3580,0.6286,1.0336,-0.2310,left_engine
0.3682,0.6236,1.0298,-0.2295,left_engine
0.3785,0.6186,1.0264,-0.2284,left_engine
0.3886,0.6135,1.0217,-0.2271,left_engine
0.3988,0.6085,1.0176,-0.2256,left_engine
0.4089,0.6034,1.0136,-0.2253,left_engine
0.4190,0.5984,1.0100,-0.2241,left_engine
0.4291,0.5933,1.0056,-0.2225,left_engine
0.4392,0.5883,1.0003,-0.2205,left_engine
0.4492,0.5832,0.9967,-0.2204,left_engine
0.4591,0.5782,0.9923,-0.2184,left_engine
0.4691,0.5731,0.9868,-0.2166,left_engine
0.4790,0.5680,0.9827,-0.2164,left_engine
0.4888,0.5630,0.9788,-0.2162,left_engine
0.4987,0.5579,0.9749,-0.2155,left_engine
0.5085,0.5528,0.9703,-0.2156,left_engine
0.5183,0.5476,0.9650,-0.2139,left_engine
0.5280,0.5425,0.9590,-0.2129,left_engine
0.5377,0.5374,0.9532,-0.2127,left_engine
0.5474,0.5323,0.9479,-0.2120,left_engine
0.5570,0.5272,0.9428,-0.2124,left_engine
0.5667,0.5219,0.9427,-0.2168,nothing
0.5763,0.5167,0.9370,-0.2172,left_engine
0.5858,0.5114,0.9310,-0.2183,left_engine
0.5953,0.5061,0.9246,-0.2188,left_engine
0.6048,0.5008,0.9171,-0.2188,left_engine
0.6142,0.4955,0.9087,-0.2185,left_engine
0.6236,0.4902,0.9015,-0.2189,left_engine
0.6329,0.4848,0.8912,-0.2192,left_engine
0.6421,0.4795,0.8803,-0.2198,left_engine
0.6513,0.4742,0.8735,-0.2215,left_engine
0.6605,0.4688,0.8654,-0.2237,left_engine
0.6695,0.4635,0.8547,-0.2255,left_engine
0.6785,0.4581,0.8431,-0.2278,left_engine
0.6874,0.4526,0.8337,-0.2301,left_engine
0.6963,0.4472,0.8245,-0.2332,left_engine
0.7051,0.4417,0.8244,-0.2378,nothing
0.7140,0.4362,0.8244,-0.2425,nothing
0.7229,0.4306,0.8243,-0.2471,nothing
0.7317,0.4250,0.8243,-0.2517,nothing
0.7406,0.4193,0.8243,-0.2564,nothing
0.7494,0.4136,0.8244,-0.2610,nothing
0.7583,0.4079,0.8245,-0.2656,nothing
0.7670,0.4034,0.8126,-0.2116,main_engine
0.7756,0.3994,0.8027,-0.1911,main_engine
0.7841,0.3960,0.7934,-0.1657,main_engine
0.7922,0.3940,0.7564,-0.1102,main_engine
0.7999,0.3930,0.7124,-0.0637,main_engine
0.8072,0.3929,0.6806,-0.0279,main_engine
0.8141,0.3937,0.6341,0.0066,main_engine
0.8203,0.3955,0.5732,0.0554,main_engine
0.8258,0.3982,0.5084,0.0876,main_engine
0.8307,0.4019,0.4456,0.1365,main_engine
0.8350,0.4060,0.3936,0.1491,main_engine
0.8388,0.4103,0.3442,0.1562,main_engine
0.8417,0.4151,0.2617,0.1757,main_engine
0.8446,0.4197,0.2621,0.1713,nothing
0.8475,0.4243,0.2625,0.1668,nothing
0.8503,0.4288,0.2629,0.1623,nothing
0.8531,0.4333,0.2633,0.1579,nothing
0.8559,0.4376,0.2638,0.1535,nothing
0.8587,0.4419,0.2642,0.1491,nothing
0.8614,0.4460,0.2647,0.1447,nothing
0.8641,0.4501,0.2651,0.1404,nothing
0.8667,0.4541,0.2656,0.1360,nothing
0.8694,0.4579,0.2660,0.1317,nothing
0.8719,0.4618,0.2653,0.1331,right_engine
0.8745,0.4657,0.2647,0.1365,right_engine
0.8770,0.4696,0.2640,0.1385,right_engine
0.8795,0.4735,0.2608,0.1415,right_engine
0.8819,0.4774,0.2583,0.1427,right_engine
0.8843,0.4813,0.2554,0.1454,right_engine
0.8866,0.4852,0.2516,0.1479,right_engine
0.8889,0.4891,0.2479,0.1493,right_engine
0.8912,0.4930,0.2441,0.1497,right_engine
0.8934,0.4969,0.2398,0.1496,right_engine
0.8956,0.5007,0.2361,0.1503,right_engine
0.8977,0.5045,0.2318,0.1512,right_engine
0.8998,0.5083,0.2269,0.1521,right_engine
0.9018,0.5120,0.2216,0.1521,right_engine
0.9038,0.5158,0.2165,0.1528,right_engine
0.9057,0.5195,0.2096,0.1543,right_engine
0.9076,0.5232,0.2037,0.1550,right_engine
0.9095,0.5269,0.1965,0.1552,right_engine
0.9113,0.5306,0.1915,0.1548,right_engine
0.9130,0.5342,0.1856,0.1537,right_engine
0.9147,0.5378,0.1802,0.1531,right_engine
0.9164,0.5413,0.1802,0.1488,nothing
0.9181,0.5447,0.1802,0.1445,nothing
0.9197,0.5481,0.1733,0.1447,right_engine
0.9213,0.5514,0.1672,0.1434,right_engine
0.9229,0.5547,0.1595,0.1429,right_engine
0.9243,0.5580,0.1501,0.1438,right_engine
0.9257,0.5612,0.1438,0.1435,right_engine
0.9271,0.5645,0.1368,0.1429,right_engine
0.9284,0.5677,0.1283,0.1437,right_engine
0.9296,0.5709,0.1214,0.1427,right_engine
0.9308,0.5740,0.1142,0.1430,right_engine
0.9319,0.5772,0.1081,0.1422,right_engine
0.9330,0.5803,0.1019,0.1412,right_engine
0.9341,0.5833,0.0936,0.1413,right_engine
0.9350,0.5864,0.0872,0.1406,right_engine
0.9359,0.5893,0.0802,0.1399,right_engine
0.9368,0.5923,0.0744,0.1391,right_engine
0.9376,0.5952,0.0663,0.1401,right_engine
0.9384,0.5982,0.0582,0.1412,right_engine
0.9390,0.6011,0.0507,0.1424,right_engine
0.9397,0.6040,0.0439,0.1423,right_engine
0.9402,0.6069,0.0383,0.1416,right_engine
0.9408,0.6096,0.0383,0.1374,nothing
0.9413,0.6123,0.0384,0.1331,nothing
0.9419,0.6148,0.0385,0.1288,nothing
0.9424,0.6173,0.0386,0.1245,nothing
0.9430,0.6196,0.0387,0.1202,nothing
0.9435,0.6219,0.0388,0.1160,nothing
0.9440,0.6240,0.0388,0.1117,nothing
0.9446,0.6260,0.0389,0.1074,nothing
0.9451,0.6280,0.0390,0.1031,nothing
0.9455,0.6299,0.0344,0.1049,right_engine
0.9460,0.6318,0.0305,0.1070,right_engine
0.9464,0.6338,0.0267,0.1101,right_engine
0.9467,0.6358,0.0238,0.1134,right_engine
0.9471,0.6377,0.0240,0.1091,nothing
0.9474,0.6394,0.0241,0.1048,nothing
0.9477,0.6411,0.0243,0.1005,nothing
0.9480,0.6427,0.0245,0.0962,nothing
0.9475,0.6441,-0.0627,0.0886,main_engine
0.9459,0.6454,-0.1572,0.0850,main_engine
0.9434,0.6463,-0.2578,0.0657,main_engine
0.9402,0.6473,-0.3181,0.0684,main_engine
0.9365,0.6481,-0.3696,0.0626,main_engine
0.9324,0.6490,-0.4071,0.0639,main_engine
0.9273,0.6496,-0.5059,0.0570,main_engine
0.9212,0.6505,-0.6019,0.0619,main_engine
0.9151,0.6512,-0.6017,0.0575,nothing
0.9090,0.6518,-0.6015,0.0532,nothing
0.9029,0.6523,-0.6013,0.0488,nothing
0.8967,0.6528,-0.6011,0.0445,nothing
0.8906,0.6531,-0.6009,0.0401,nothing
0.8836,0.6536,-0.6858,0.0470,main_engine
0.8757,0.6544,-0.7720,0.0603,main_engine
0.8670,0.6558,-0.8523,0.0867,main_engine
0.8573,0.6578,-0.9453,0.1135,main_engine
0.8471,0.6600,-1.0049,0.1200,main_engine
0.8368,0.6621,-1.0047,0.1156,nothing
0.8265,0.6641,-1.0045,0.1112,nothing
0.8162,0.6660,-1.0043,0.1068,nothing
0.8059,0.6679,-1.0042,0.1024,nothing
0.7956,0.6696,-1.0040,0.0980,nothing
0.7853,0.6713,-1.0039,0.0936,nothing
0.7749,0.6729,-1.0037,0.0891,nothing
0.7646,0.6744,-1.0036,0.0847,nothing
0.7542,0.6758,-1.0034,0.0803,nothing
0.7439,0.6772,-1.0033,0.0759,nothing
0.7335,0.6784,-1.0032,0.0714,nothing
0.7231,0.6796,-1.0031,0.0670,nothing
0.7127,0.6807,-1.0030,0.0625,nothing
0.7023,0.6818,-1.0029,0.0581,nothing
0.6919,0.6827,-1.0028,0.0536,nothing
0.6815,0.6836,-1.0027,0.0492,nothing
0.6711,0.6844,-1.0026,0.0447,nothing
0.6607,0.6851,-1.0025,0.0403,nothing
0.6502,0.6858,-1.0025,0.0358,nothing
0.6398,0.6864,-1.0024,0.0314,nothing
0.6294,0.6869,-1.0024,0.0269,nothing
0.6190,0.6873,-1.0024,0.0225,nothing
0.6085,0.6876,-1.0097,0.0171,left_engine
0.5979,0.6879,-1.0216,0.0123,left_engine
0.5872,0.6880,-1.0327,0.0076,left_engine
0.5765,0.6881,-1.0327,0.0032,nothing
0.5659,0.6881,-1.0327,-0.0013,nothing
0.5552,0.6880,-1.0327,-0.0057,nothing
0.5445,0.6878,-1.0327,-0.0101,nothing
0.5338,0.6876,-1.0327,-0.0145,nothing
0.5232,0.6873,-1.0327,-0.0190,nothing
0.5125,0.6868,-1.0328,-0.0234,nothing
0.5017,0.6864,-1.0434,-0.0257,left_engine
0.4909,0.6859,-1.0526,-0.0284,left_engine
0.4800,0.6853,-1.0623,-0.0308,left_engine
0.4691,0.6847,-1.0623,-0.0352,nothing
0.4583,0.6839,-1.0623,-0.0396,nothing
0.4474,0.6831,-1.0624,-0.0440,nothing
0.4366,0.6822,-1.0531,-0.0514,right_engine
0.4258,0.6810,-1.0433,-0.0590,right_engine
0.4152,0.6798,-1.0324,-0.0668,right_engine
0.4046,0.6784,-1.0235,-0.0743,right_engine
0.3941,0.6769,-1.0236,-0.0787,nothing
0.3835,0.6754,-1.0237,-0.0831,nothing
0.3730,0.6738,-1.0238,-0.0876,nothing
0.3625,0.6720,-1.0165,-0.0964,right_engine
0.3521,0.6700,-1.0108,-0.1044,right_engine
0.3417,0.6680,-1.0048,-0.1122,right_engine
0.3314,0.6657,-0.9973,-0.1211,right_engine
0.3212,0.6633,-0.9919,-0.1296,right_engine
0.3110,0.6608,-0.9863,-0.1385,right_engine
0.3009,0.6581,-0.9811,-0.1474,right_engine
0.2909,0.6553,-0.9775,-0.1564,right_engine
0.2808,0.6523,-0.9733,-0.1661,right_engine
0.2709,0.6491,-0.9687,-0.1764,right_engine
0.2610,0.6457,-0.9643,-0.1865,right_engine
0.2512,0.6422,-0.9600,-0.1983,right_engine
0.2414,0.6385,-0.9605,-0.2027,nothing
0.2317,0.6348,-0.9610,-0.2071,nothing
0.2220,0.6310,-0.9615,-0.2115,nothing
0.2123,0.6271,-0.9620,-0.2159,nothing
0.2027,0.6232,-0.9625,-0.2147,left_engine
0.1930,0.6193,-0.9635,-0.2119,left_engine
0.1835,0.6154,-0.9628,-0.2112,left_engine
0.1739,0.6115,-0.9612,-0.2077,left_engine
0.1644,0.6076,-0.9600,-0.2067,left_engine
0.1550,0.6037,-0.9582,-0.2028,left_engine
0.1455,0.5999,-0.9564,-0.2022,left_engine
0.1361,0.5960,-0.9544,-0.2014,left_engine
0.1268,0.5920,-0.9506,-0.2000,left_engine
0.1175,0.5881,-0.9469,-0.1993,left_engine
0.1082,0.5842,-0.9422,-0.1973,left_engine
0.0990,0.5802,-0.9377,-0.1950,left_engine
0.0898,0.5763,-0.9335,-0.1942,left_engine
0.0807,0.5724,-0.9278,-0.1912,left_engine
0.0716,0.5684,-0.9233,-0.1903,left_engine
0.0626,0.5645,-0.9160,-0.1879,left_engine
0.0536,0.5606,-0.9118,-0.1879,left_engine
0.0447,0.5566,-0.9060,-0.1877,left_engine
0.0358,0.5526,-0.9007,-0.1877,left_engine
0.0270,0.5486,-0.8956,-0.1880,left_engine
0.0182,0.5445,-0.8896,-0.1874,left_engine
0.0094,0.5405,-0.8823,-0.1857,left_engine
0.0007,0.5364,-0.8757,-0.1858,left_engine
-0.0079,0.5323,-0.8673,-0.1846,left_engine
-0.0164,0.5282,-0.8597,-0.1840,left_engine
-0.0250,0.5241,-0.8536,-0.1832,left_engine
-0.0334,0.5200,-0.8460,-0.1829,left_engine
-0.0418,0.5159,-0.8395,-0.1827,left_engine
-0.0502,0.5118,-0.8315,-0.1809,left_engine
-0.0585,0.5076,-0.8237,-0.1791,left_engine
-0.0667,0.5035,-0.8177,-0.1785,left_engine
-0.0749,0.4994,-0.8122,-0.1781,left_engine
-0.0831,0.4952,-0.8064,-0.1779,left_engine
-0.0912,0.4911,-0.7988,-0.1758,left_engine
-0.0992,0.4869,-0.7916,-0.1745,left_engine
-0.1072,0.4827,-0.7869,-0.1747,left_engine
-0.1151,0.4786,-0.7806,-0.1735,left_engine
-0.1231,0.4743,-0.7760,-0.1728,left_engine
-0.1309,0.4701,-0.7704,-0.1720,left_engine
-0.1387,0.4659,-0.7635,-0.1697,left_engine
-0.1465,0.4617,-0.7597,-0.1697,left_engine
-0.1542,0.4574,-0.7553,-0.1685,left_engine
-0.1619,0.4532,-0.7499,-0.1665,left_engine
-0.1695,0.4489,-0.7449,-0.1638,left_engine
-0.1770,0.4447,-0.7414,-0.1633,left_engine
-0.1846,0.4404,-0.7371,-0.1605,left_engine
-0.1920,0.4362,-0.7339,-0.1578,left_engine
-0.1995,0.4318,-0.7342,-0.1621,nothing
-0.2069,0.4274,-0.7345,-0.1664,nothing
-0.2144,0.4228,-0.7348,-0.1706,nothing
-0.2218,0.4182,-0.7350,-0.1749,nothing
-0.2291,0.4134,-0.7353,-0.1792,nothing
-0.2365,0.4086,-0.7356,-0.1835,nothing
-0.2438,0.4036,-0.7359,-0.1879,nothing
-0.2512,0.3986,-0.7362,-0.1922,nothing
-0.2585,0.3935,-0.7365,-0.1965,nothing
-0.2650,0.3883,-0.6616,-0.1964,main_engine
-0.2708,0.3832,-0.5914,-0.1951,main_engine
-0.2760,0.3784,-0.5368,-0.1839,main_engine
-0.2809,0.3738,-0.5005,-0.1724,main_engine
-0.2851,0.3693,-0.4369,-0.1706,main_engine
-0.2885,0.3653,-0.3618,-0.1481,main_engine
-0.2911,0.3620,-0.2807,-0.1222,main_engine
-0.2937,0.3585,-0.2810,-0.1266,nothing
-0.2962,0.3549,-0.2812,-0.1310,nothing
-0.2988,0.3513,-0.2815,-0.1354,nothing
-0.3007,0.3483,-0.2231,-0.1097,main_engine
-0.3019,0.3458,-0.1458,-0.0849,main_engine
-0.3027,0.3438,-0.1178,-0.0657,main_engine
-0.3036,0.3417,-0.1180,-0.0702,nothing
-0.3044,0.3396,-0.1182,-0.0746,nothing
-0.3052,0.3373,-0.1184,-0.0791,nothing
-0.3060,0.3350,-0.1186,-0.0836,nothing
-0.3068,0.3327,-0.1188,-0.0881,nothing
-0.3076,0.3302,-0.1189,-0.0925,nothing
-0.3084,0.3277,-0.1191,-0.0970,nothing
-0.3091,0.3251,-0.1192,-0.1015,nothing
-0.3099,0.3224,-0.1194,-0.1060,nothing
-0.3106,0.3197,-0.1195,-0.1105,nothing
-0.3114,0.3169,-0.1196,-0.1150,nothing
-0.3121,0.3140,-0.1197,-0.1195,nothing
-0.3128,0.3111,-0.1197,-0.1240,nothing
-0.3136,0.3081,-0.1198,-0.1285,nothing
-0.3143,0.3050,-0.1198,-0.1330,nothing
-0.3150,0.3019,-0.1199,-0.1375,nothing
-0.3157,0.2986,-0.1199,-0.1420,nothing
-0.3165,0.2954,-0.1199,-0.1466,nothing
-0.3171,0.2920,-0.1089,-0.1505,right_engine
-0.3177,0.2886,-0.0972,-0.1543,right_engine
-0.3181,0.2852,-0.0880,-0.1575,right_engine
-0.3185,0.2817,-0.0795,-0.1612,right_engine
-0.3189,0.2781,-0.0717,-0.1643,right_engine
-0.3192,0.2745,-0.0611,-0.1665,right_engine
-0.3194,0.2708,-0.0525,-0.1697,right_engine
-0.3196,0.2671,-0.0524,-0.1741,nothing
-0.3198,0.2632,-0.0524,-0.1785,nothing
-0.3200,0.2593,-0.0523,-0.1829,nothing
-0.3201,0.2553,-0.0431,-0.1850,right_engine
-0.3202,0.2513,-0.0361,-0.1867,right_engine
-0.3203,0.2473,-0.0276,-0.1885,right_engine
-0.3202,0.2432,-0.0167,-0.1890,right_engine
-0.3201,0.2391,-0.0084,-0.1907,right_engine
-0.3199,0.2350,0.0003,-0.1913,right_engine
-0.3197,0.2308,0.0100,-0.1915,right_engine
-0.3194,0.2266,0.0100,-0.1959,nothing
-0.3192,0.2222,0.0100,-0.2002,nothing
-0.3189,0.2178,0.0101,-0.2046,nothing
-0.3187,0.2132,0.0101,-0.2089,nothing
-0.3184,0.2086,0.0101,-0.2133,nothing
-0.3182,0.2039,0.0101,-0.2176,nothing
-0.3180,0.1991,0.0102,-0.2219,nothing
-0.3177,0.1942,0.0102,-0.2263,nothing
-0.3175,0.1892,0.0102,-0.2306,nothing
-0.3172,0.1841,0.0103,-0.2350,nothing
-0.3170,0.1789,0.0103,-0.2393,nothing
-0.3168,0.1736,0.0103,-0.2436,nothing
-0.3165,0.1682,0.0104,-0.2480,nothing
-0.3163,0.1627,0.0104,-0.2523,nothing
-0.3161,0.1572,0.0104,-0.2567,nothing
-0.3159,0.1515,0.0104,-0.2610,nothing
-0.3157,0.1457,0.0105,-0.2653,nothing
-0.3149,0.1429,0.0454,-0.1582,nothing
-0.3141,0.1406,0.0537,-0.1364,nothing
-0.3133,0.1381,0.0540,-0.1408,nothing
-0.3125,0.1354,0.0542,-0.1453,nothing
-0.3117,0.1327,0.0544,-0.1496,nothing
-0.3110,0.1298,0.0547,-0.1540,nothing
-0.3103,0.1269,0.0549,-0.1584,nothing
-0.3096,0.1239,0.0552,-0.1628,nothing
-0.3089,0.1208,0.0555,-0.1672,nothing
-0.3082,0.1176,0.0557,-0.1715,nothing
-0.3076,0.1144,0.0560,-0.1759,nothing
-0.3070,0.1108,0.0545,-0.1884,left_engine
-0.3064,0.1071,0.0537,-0.2010,left_engine
-0.3058,0.1031,0.0535,-0.2136,left_engine
-0.3053,0.0990,0.0540,-0.2243,left_engine
-0.3048,0.0946,0.0553,-0.2354,left_engine
-0.3043,0.0900,0.0566,-0.2453,left_engine
-0.3038,0.0852,0.0583,-0.2572,left_engine
-0.3034,0.0801,0.0613,-0.2679,left_engine
-0.3020,0.0792,0.1638,-0.0219,left_engine
-0.0146,1.4210,-0.7403,0.2229,nothing
-0.0220,1.4259,-0.7404,0.2186,nothing
-0.0293,1.4308,-0.7404,0.2142,nothing
-0.0366,1.4355,-0.7404,0.2099,nothing
-0.0439,1.4401,-0.7404,0.2056,nothing
-0.0512,1.4447,-0.7405,0.2013,nothing
-0.0586,1.4491,-0.7405,0.1969,nothing
-0.0659,1.4534,-0.7405,0.1926,nothing
-0.0732,1.4577,-0.7405,0.1883,nothing
-0.0805,1.4618,-0.7406,0.1839,nothing
-0.0879,1.4659,-0.7406,0.1796,nothing
-0.0952,1.4699,-0.7406,0.1753,nothing
-0.1025,1.4737,-0.7406,0.1710,nothing
-0.1098,1.4775,-0.7407,0.1666,nothing
-0.1171,1.4811,-0.7407,0.1623,nothing
-0.1245,1.4847,-0.7407,0.1580,nothing
-0.1318,1.4882,-0.7407,0.1536,nothing
-0.1391,1.4916,-0.7408,0.1493,nothing
-0.1464,1.4949,-0.7408,0.1450,nothing
-0.1538,1.4980,-0.7408,0.1407,nothing
-0.1611,1.5011,-0.7408,0.1363,nothing
-0.1684,1.5041,-0.7408,0.1320,nothing
-0.1757,1.5070,-0.7409,0.1277,nothing
-0.1831,1.5098,-0.7409,0.1233,nothing
-0.1904,1.5125,-0.7405,0.1186,nothing
-0.1977,1.5151,-0.7406,0.1137,nothing
-0.2050,1.5176,-0.7406,0.1094,nothing
-0.2124,1.5200,-0.7406,0.1051,nothing
-0.2197,1.5223,-0.7406,0.1008,nothing
-0.2270,1.5245,-0.7406,0.0964,nothing
-0.2343,1.5266,-0.7406,0.0921,nothing
-0.2417,1.5286,-0.7406,0.0878,nothing
-0.2490,1.5305,-0.7406,0.0835,nothing
0.0041,1.3898,0.2079,-0.4715,nothing
0.0062,1.3791,0.2079,-0.4758,nothing
0.0082,1.3683,0.2079,-0.4802,nothing
0.0103,1.3574,0.2079,-0.4845,nothing
0.0123,1.3464,0.2079,-0.4888,nothing
0.0144,1.3353,0.2080,-0.4931,nothing
0.0164,1.3241,0.2080,-0.4975,nothing
0.0185,1.3128,0.2080,-0.5018,nothing
0.0206,1.3014,0.2080,-0.5061,nothing
0.0226,1.2899,0.2080,-0.5104,nothing
0.0247,1.2783,0.2080,-0.5147,nothing
0.0267,1.2667,0.2080,-0.5191,nothing
0.0288,1.2549,0.2080,-0.5234,nothing
0.0308,1.2430,0.2080,-0.5277,nothing
0.0329,1.2310,0.2080,-0.5320,nothing
0.0350,1.2190,0.2080,-0.5364,nothing
0.0370,1.2068,0.2080,-0.5407,nothing
0.0391,1.1946,0.2080,-0.5450,nothing
0.0411,1.1822,0.2080,-0.5493,nothing
0.0432,1.1697,0.2080,-0.5536,nothing
0.0452,1.1572,0.2081,-0.5580,nothing
0.0473,1.1445,0.2081,-0.5623,nothing
0.0494,1.1318,0.2081,-0.5666,nothing
0.0514,1.1189,0.2081,-0.5709,nothing
0.0535,1.1060,0.2080,-0.5762,nothing
0.0555,1.0929,0.2080,-0.5805,nothing
0.0576,1.0803,0.2096,-0.5594,main_engine
0.0597,1.0685,0.2153,-0.5259,main_engine
0.0618,1.0578,0.2134,-0.4743,main_engine
0.0641,1.0484,0.2302,-0.4203,main_engine
0.0665,1.0401,0.2416,-0.3693,main_engine
0.0689,1.0327,0.2390,-0.3267,main_engine
0.0711,1.0261,0.2266,-0.2970,main_engine
0.0733,1.0199,0.2191,-0.2738,main_engine
0.0754,1.0136,0.2191,-0.2781,nothing
0.0776,1.0073,0.2191,-0.2825,nothing
0.0797,1.0008,0.2191,-0.2868,nothing
0.0819,0.9943,0.2191,-0.2911,nothing
0.0840,0.9877,0.2191,-0.2954,nothing
0.0862,0.9809,0.2191,-0.2997,nothing
0.0884,0.9741,0.2191,-0.3041,nothing
0.0905,0.9672,0.2191,-0.3084,nothing
0.0927,0.9601,0.2191,-0.3127,nothing
0.0948,0.9530,0.2191,-0.3170,nothing
0.0970,0.9458,0.2191,-0.3213,nothing
0.0991,0.9385,0.2191,-0.3257,nothing
0.1013,0.9310,0.2191,-0.3300,nothing
0.1034,0.9235,0.2191,-0.3343,nothing
0.1056,0.9159,0.2191,-0.3386,nothing
0.1078,0.9082,0.2191,-0.3430,nothing
0.1099,0.9004,0.2191,-0.3473,nothing
0.1121,0.8925,0.2191,-0.3516,nothing
0.1142,0.8845,0.2191,-0.3559,nothing
0.1164,0.8764,0.2191,-0.3602,nothing
0.1185,0.8682,0.2191,-0.3646,nothing
0.1207,0.8599,0.2191,-0.3689,nothing
0.1231,0.8528,0.2399,-0.3140,main_engine
0.1254,0.8467,0.2341,-0.2756,main_engine
0.1276,0.8416,0.2323,-0.2242,main_engine
0.1302,0.8373,0.2570,-0.1941,main_engine
0.1329,0.8338,0.2780,-0.1531,main_engine
0.1357,0.8312,0.2849,-0.1177,main_engine
0.1385,0.8285,0.2849,-0.1221,nothing
0.1413,0.8256,0.2849,-0.1264,nothing
0.1442,0.8227,0.2849,-0.1307,nothing
0.1470,0.8197,0.2849,-0.1350,nothing
0.1498,0.8165,0.2849,-0.1393,nothing
0.1526,0.8133,0.2849,-0.1437,nothing
0.1554,0.8100,0.2849,-0.1480,nothing
0.1582,0.8066,0.2849,-0.1523,nothing
0.1610,0.8031,0.2849,-0.1566,nothing
0.1638,0.7995,0.2849,-0.1610,nothing
0.1666,0.7958,0.2849,-0.1653,nothing
0.1695,0.7920,0.2849,-0.1696,nothing
0.1723,0.7881,0.2849,-0.1739,nothing
0.1751,0.7841,0.2849,-0.1782,nothing
0.1781,0.7811,0.3042,-0.1303,main_engine
0.1813,0.7789,0.3264,-0.0987,main_engine
0.1846,0.7779,0.3360,-0.0454,main_engine
0.1881,0.7777,0.3529,-0.0091,main_engine
0.1919,0.7785,0.3821,0.0333,main_engine
0.1957,0.7792,0.3821,0.0290,nothing
0.1995,0.7797,0.3821,0.0247,nothing
0.2033,0.7802,0.3821,0.0204,nothing
0.2071,0.7806,0.3821,0.0161,nothing
0.2109,0.7809,0.3821,0.0117,nothing
0.2146,0.7810,0.3821,0.0074,nothing
0.2184,0.7811,0.3821,0.0031,nothing
0.2222,0.7811,0.3821,-0.0012,nothing
0.2259,0.7810,0.3734,-0.0037,left_engine
0.2296,0.7809,0.3626,-0.0053,left_engine
0.2331,0.7807,0.3524,-0.0076,left_engine
0.2366,0.7805,0.3414,-0.0095,left_engine
0.2400,0.7802,0.3301,-0.0114,left_engine
0.2434,0.7798,0.3301,-0.0157,nothing
0.2467,0.7793,0.3301,-0.0200,nothing
0.2501,0.7788,0.3301,-0.0243,nothing
0.2535,0.7781,0.3301,-0.0287,nothing
0.2569,0.7773,0.3301,-0.0330,nothing
0.2602,0.7765,0.3301,-0.0373,nothing
0.2636,0.7755,0.3301,-0.0416,nothing
0.2670,0.7744,0.3301,-0.0460,nothing
0.2704,0.7733,0.3301,-0.0503,nothing
0.2737,0.7721,0.3195,-0.0527,left_engine
0.2769,0.7708,0.3098,-0.0557,left_engine
0.2801,0.7694,0.3021,-0.0592,left_engine
0.2831,0.7680,0.2938,-0.0632,left_engine
0.2862,0.7664,0.2938,-0.0675,nothing
0.2893,0.7648,0.2938,-0.0719,nothing
0.2924,0.7630,0.2938,-0.0762,nothing
0.2955,0.7612,0.2938,-0.0805,nothing
0.2986,0.7593,0.2938,-0.0849,nothing
0.3017,0.7572,0.2937,-0.0892,nothing
0.3047,0.7551,0.2834,-0.0936,left_engine
0.3076,0.7529,0.2729,-0.0972,left_engine
0.3105,0.7506,0.2648,-0.1014,left_engine
0.3133,0.7483,0.2568,-0.1053,left_engine
0.3160,0.7458,0.2489,-0.1094,left_engine
0.3188,0.7433,0.2489,-0.1138,nothing
0.3215,0.7407,0.2489,-0.1181,nothing
0.3242,0.7379,0.2489,-0.1225,nothing
0.3270,0.7351,0.2489,-0.1269,nothing
0.3297,0.7322,0.2489,-0.1312,nothing
0.3324,0.7293,0.2490,-0.1356,nothing
0.3352,0.7262,0.2490,-0.1400,nothing
0.3379,0.7230,0.2490,-0.1444,nothing
0.3406,0.7198,0.2490,-0.1487,nothing
0.3433,0.7164,0.2490,-0.1531,nothing
0.3460,0.7142,0.2387,-0.1027,main_engine
0.3483,0.7130,0.2117,-0.0601,main_engine
0.3506,0.7124,0.1985,-0.0347,main_engine
0.3525,0.7128,0.1670,0.0119,main_engine
0.3544,0.7131,0.1670,0.0076,nothing
0.3563,0.7133,0.1670,0.0032,nothing
0.3582,0.7135,0.1671,-0.0012,nothing
0.3600,0.7135,0.1671,-0.0055,nothing
0.3616,0.7146,0.1292,0.0417,main_engine
0.3626,0.7169,0.0842,0.0921,main_engine
0.3633,0.7199,0.0504,0.1251,main_engine
0.3641,0.7228,0.0504,0.1207,nothing
0.3648,0.7257,0.0505,0.1164,nothing
0.3655,0.7284,0.0505,0.1120,nothing
0.3662,0.7311,0.0506,0.1076,nothing
0.3669,0.7336,0.0506,0.1033,nothing
0.3676,0.7361,0.0507,0.0989,nothing
0.3683,0.7385,0.0507,0.0946,nothing
0.3690,0.7408,0.0508,0.0902,nothing
0.3697,0.7430,0.0508,0.0858,nothing
0.3704,0.7451,0.0509,0.0815,nothing
0.3710,0.7471,0.0509,0.0771,nothing
0.3717,0.7490,0.0510,0.0728,nothing
0.3724,0.7509,0.0510,0.0684,nothing
0.3726,0.7529,0.0079,0.0783,main_engine
0.3721,0.7554,-0.0616,0.0972,main_engine
0.3709,0.7584,-0.1375,0.1199,main_engine
0.3691,0.7622,-0.1971,0.1549,main_engine
0.3666,0.7666,-0.2570,0.1815,main_engine
0.3642,0.7709,-0.2570,0.1772,nothing
0.3617,0.7751,-0.2569,0.1728,nothing
0.3593,0.7792,-0.2568,0.1685,nothing
0.3568,0.7832,-0.2568,0.1641,nothing
0.3544,0.7872,-0.2567,0.1598,nothing
0.3519,0.7910,-0.2566,0.1554,nothing
0.3494,0.7947,-0.2566,0.1511,nothing
0.3470,0.7984,-0.2565,0.1468,nothing
0.3445,0.8019,-0.2564,0.1424,nothing
0.3420,0.8054,-0.2564,0.1381,nothing
0.3395,0.8088,-0.2563,0.1337,nothing
0.3370,0.8122,-0.2524,0.1367,right_engine
0.3346,0.8156,-0.2499,0.1393,right_engine
0.3322,0.8190,-0.2473,0.1427,right_engine
0.3297,0.8224,-0.2472,0.1384,nothing
0.3273,0.8257,-0.2461,0.1397,right_engine
0.3249,0.8290,-0.2445,0.1409,right_engine
0.3225,0.8324,-0.2422,0.1440,right_engine
0.3201,0.8358,-0.2402,0.1471,right_engine
0.3177,0.8391,-0.2402,0.1428,nothing
0.3153,0.8423,-0.2402,0.1385,nothing
0.3129,0.8454,-0.2402,0.1342,nothing
0.3105,0.8484,-0.2402,0.1298,nothing
0.3081,0.8514,-0.2401,0.1255,nothing
0.3057,0.8542,-0.2401,0.1212,nothing
0.3033,0.8569,-0.2401,0.1169,nothing
0.3009,0.8595,-0.2401,0.1126,nothing
0.2985,0.8620,-0.2401,0.1082,nothing
0.2961,0.8645,-0.2401,0.1039,nothing
0.2938,0.8668,-0.2401,0.0996,nothing
0.2914,0.8690,-0.2401,0.0953,nothing
0.2890,0.8712,-0.2401,0.0910,nothing
0.2866,0.8732,-0.2401,0.0866,nothing
0.2842,0.8752,-0.2401,0.0823,nothing
0.2818,0.8770,-0.2401,0.0780,nothing
0.2794,0.8787,-0.2401,0.0737,nothing
0.2770,0.8804,-0.2401,0.0693,nothing
0.2746,0.8820,-0.2401,0.0650,nothing
0.2722,0.8835,-0.2402,0.0673,right_engine
0.2698,0.8851,-0.2399,0.0708,right_engine
0.2674,0.8867,-0.2401,0.0727,right_engine
0.2650,0.8884,-0.2394,0.0750,right_engine
0.2626,0.8900,-0.2386,0.0758,right_engine
0.2602,0.8916,-0.2382,0.0779,right_engine
0.2578,0.8932,-0.2370,0.0818,right_engine
0.2555,0.8949,-0.2358,0.0827,right_engine
0.2531,0.8966,-0.2354,0.0852,right_engine
0.2507,0.8982,-0.2339,0.0864,right_engine
0.2484,0.8999,-0.2324,0.0878,right_engine
0.2460,0.9016,-0.2314,0.0897,right_engine
0.2437,0.9033,-0.2287,0.0934,right_engine
0.2413,0.9050,-0.2264,0.0959,right_engine
0.2390,0.9067,-0.2263,0.0916,nothing
0.2367,0.9082,-0.2262,0.0872,nothing
0.2343,0.9097,-0.2261,0.0829,nothing
0.2320,0.9110,-0.2260,0.0786,nothing
0.2296,0.9123,-0.2259,0.0742,nothing
0.2272,0.9134,-0.2258,0.0699,nothing
0.2249,0.9145,-0.2257,0.0655,nothing
0.2225,0.9155,-0.2256,0.0612,nothing
0.2201,0.9164,-0.2255,0.0568,nothing
0.2177,0.9172,-0.2255,0.0525,nothing
0.2153,0.9179,-0.2254,0.0481,nothing
0.2129,0.9185,-0.2253,0.0438,nothing
0.2105,0.9190,-0.2252,0.0394,nothing
0.2081,0.9195,-0.2251,0.0350,nothing
0.2056,0.9198,-0.2250,0.0307,nothing
0.2032,0.9201,-0.2249,0.0263,nothing
0.2008,0.9202,-0.2249,0.0220,nothing
0.1983,0.9203,-0.2248,0.0176,nothing
0.1959,0.9203,-0.2247,0.0132,nothing
0.1934,0.9202,-0.2246,0.0089,nothing
0.1910,0.9200,-0.2246,0.0045,nothing
0.1885,0.9197,-0.2245,0.0001,nothing
0.1860,0.9193,-0.2244,-0.0043,nothing
0.1836,0.9189,-0.2243,-0.0086,nothing
0.1811,0.9183,-0.2243,-0.0130,nothing
0.1786,0.9177,-0.2242,-0.0174,nothing
0.1761,0.9170,-0.2242,-0.0218,nothing
0.1736,0.9161,-0.2241,-0.0261,nothing
0.1711,0.9152,-0.2241,-0.0305,nothing
0.1686,0.9142,-0.2345,-0.0383,left_engine
0.1659,0.9130,-0.2415,-0.0456,left_engine
0.1632,0.9117,-0.2518,-0.0534,left_engine
0.1605,0.9102,-0.2518,-0.0578,nothing
0.1578,0.9087,-0.2518,-0.0621,nothing
0.1550,0.9071,-0.2517,-0.0665,nothing
0.1523,0.9054,-0.2517,-0.0709,nothing
0.1496,0.9036,-0.2517,-0.0752,nothing
0.1469,0.9017,-0.2517,-0.0796,nothing
0.1441,0.8997,-0.2517,-0.0839,nothing
0.1414,0.8976,-0.2516,-0.0883,nothing
0.1387,0.8954,-0.2516,-0.0927,nothing
0.1359,0.8932,-0.2516,-0.0970,nothing
0.1332,0.8908,-0.2516,-0.1014,nothing
0.1305,0.8884,-0.2516,-0.1057,nothing
0.1277,0.8859,-0.2516,-0.1101,nothing
0.1250,0.8832,-0.2516,-0.1145,nothing
0.1223,0.8805,-0.2515,-0.1188,nothing
0.1195,0.8777,-0.2515,-0.1232,nothing
0.1168,0.8748,-0.2515,-0.1275,nothing
0.1140,0.8719,-0.2515,-0.1319,nothing
0.1113,0.8688,-0.2515,-0.1363,nothing
0.1086,0.8656,-0.2515,-0.1406,nothing
0.1058,0.8624,-0.2515,-0.1450,nothing
0.1031,0.8590,-0.2515,-0.1493,nothing
0.1004,0.8556,-0.2515,-0.1537,nothing
0.0976,0.8520,-0.2515,-0.1581,nothing
0.0949,0.8484,-0.2515,-0.1624,nothing
0.0922,0.8447,-0.2515,-0.1668,nothing
0.0894,0.8409,-0.2516,-0.1711,nothing
0.0867,0.8370,-0.2516,-0.1755,nothing
0.0840,0.8330,-0.2516,-0.1799,nothing
0.0812,0.8290,-0.2516,-0.1842,nothing
0.0785,0.8248,-0.2516,-0.1886,nothing
0.0758,0.8205,-0.2516,-0.1929,nothing
0.0733,0.8170,-0.2235,-0.1620,main_engine
0.0711,0.8147,-0.2046,-0.1063,main_engine
0.0692,0.8137,-0.1661,-0.0475,main_engine
0.0677,0.8138,-0.1291,-0.0029,main_engine
0.0662,0.8137,-0.1291,-0.0072,nothing
0.0647,0.8136,-0.1291,-0.0116,nothing
0.0632,0.8133,-0.1292,-0.0159,nothing
0.0618,0.8130,-0.1292,-0.0203,nothing
0.0603,0.8126,-0.1292,-0.0246,nothing
0.0588,0.8121,-0.1292,-0.0290,nothing
0.0573,0.8115,-0.1293,-0.0333,nothing
0.0558,0.8108,-0.1293,-0.0377,nothing
0.0544,0.8100,-0.1293,-0.0420,nothing
0.0529,0.8091,-0.1293,-0.0464,nothing
0.0514,0.8081,-0.1294,-0.0507,nothing
0.0500,0.8071,-0.1294,-0.0551,nothing
0.0485,0.8059,-0.1294,-0.0594,nothing
0.0471,0.8053,-0.1222,-0.0374,main_engine
0.0461,0.8049,-0.0833,-0.0233,main_engine
0.0454,0.8050,-0.0529,-0.0057,main_engine
0.0454,0.8061,0.0140,0.0395,main_engine
0.0457,0.8076,0.0474,0.0595,main_engine
0.0460,0.8091,0.0474,0.0551,nothing
0.0463,0.8104,0.0473,0.0508,nothing
0.0467,0.8117,0.0473,0.0464,nothing
0.0470,0.8129,0.0473,0.0421,nothing
0.0473,0.8140,0.0472,0.0377,nothing
0.0477,0.8149,0.0472,0.0334,nothing
0.0479,0.8159,0.0394,0.0342,left_engine
0.0482,0.8169,0.0329,0.0350,left_engine
0.0483,0.8178,0.0257,0.0360,left_engine
0.0485,0.8188,0.0178,0.0374,left_engine
0.0486,0.8197,0.0177,0.0331,nothing
0.0487,0.8205,0.0177,0.0288,nothing
0.0488,0.8211,0.0177,0.0244,nothing
0.0489,0.8217,0.0177,0.0201,nothing
0.0490,0.8222,0.0177,0.0158,nothing
0.0491,0.8227,0.0124,0.0161,left_engine
0.0491,0.8231,0.0077,0.0161,left_engine
0.0492,0.8235,0.0038,0.0165,left_engine
0.0492,0.8239,0.0038,0.0121,nothing
0.0492,0.8241,0.0038,0.0078,nothing
0.0492,0.8242,0.0037,0.0035,nothing
0.0492,0.8243,0.0037,-0.0008,nothing
0.0492,0.8242,0.0037,-0.0051,nothing
0.0492,0.8241,0.0037,-0.0095,nothing
0.0492,0.8238,0.0037,-0.0138,nothing
0.0493,0.8235,0.0037,-0.0181,nothing
0.0493,0.8230,0.0037,-0.0224,nothing
0.0493,0.8225,0.0037,-0.0268,nothing
0.0493,0.8218,0.0037,-0.0311,nothing
0.0493,0.8211,0.0037,-0.0354,nothing
0.0493,0.8203,0.0037,-0.0397,nothing
0.0493,0.8193,0.0037,-0.0440,nothing
0.0493,0.8183,0.0037,-0.0484,nothing
0.0494,0.8172,0.0037,-0.0527,nothing
0.0494,0.8160,0.0037,-0.0570,nothing
0.0494,0.8146,0.0037,-0.0613,nothing
0.0494,0.8132,0.0037,-0.0656,nothing
0.0494,0.8117,0.0037,-0.0700,nothing
0.0494,0.8101,0.0037,-0.0743,nothing
0.0494,0.8084,0.0037,-0.0786,nothing
0.0495,0.8066,0.0037,-0.0829,nothing
0.0495,0.8047,0.0037,-0.0872,nothing
0.0495,0.8028,-0.0002,-0.0870,left_engine
0.0494,0.8009,-0.0055,-0.0851,left_engine
0.0493,0.7989,-0.0087,-0.0846,left_engine
0.0492,0.7969,-0.0087,-0.0889,nothing
0.0492,0.7948,-0.0087,-0.0932,nothing
0.0491,0.7926,-0.0087,-0.0975,nothing
0.0490,0.7903,-0.0087,-0.1018,nothing
0.0489,0.7878,-0.0087,-0.1062,nothing
0.0489,0.7853,-0.0087,-0.1105,nothing
0.0488,0.7827,-0.0087,-0.1148,nothing
0.0487,0.7800,-0.0087,-0.1191,nothing
0.0486,0.7773,-0.0135,-0.1181,left_engine
0.0484,0.7746,-0.0192,-0.1160,left_engine
0.0482,0.7719,-0.0242,-0.1149,left_engine
0.0480,0.7692,-0.0288,-0.1148,left_engine
0.0477,0.7665,-0.0341,-0.1127,left_engine
0.0475,0.7637,-0.0341,-0.1170,nothing
0.0472,0.7608,-0.0341,-0.1214,nothing
0.0469,0.7578,-0.0341,-0.1257,nothing
0.0467,0.7547,-0.0342,-0.1300,nothing
0.0464,0.7515,-0.0342,-0.1344,nothing
0.0461,0.7482,-0.0342,-0.1387,nothing
0.0459,0.7448,-0.0342,-0.1430,nothing
0.0456,0.7413,-0.0342,-0.1473,nothing
0.0453,0.7377,-0.0342,-0.1517,nothing
0.0451,0.7341,-0.0343,-0.1560,nothing
0.0448,0.7303,-0.0343,-0.1603,nothing
0.0446,0.7264,-0.0343,-0.1647,nothing
0.0443,0.7225,-0.0343,-0.1690,nothing
0.0441,0.7184,-0.0343,-0.1733,nothing
0.0438,0.7143,-0.0344,-0.1777,nothing
0.0436,0.7100,-0.0344,-0.1820,nothing
0.0433,0.7058,-0.0412,-0.1814,left_engine
0.0430,0.7014,-0.0412,-0.1857,nothing
0.0427,0.6970,-0.0412,-0.1900,nothing
0.0424,0.6925,-0.0413,-0.1944,nothing
0.0421,0.6878,-0.0413,-0.1987,nothing
0.0418,0.6831,-0.0413,-0.2030,nothing
0.0415,0.6783,-0.0413,-0.2074,nothing
0.0412,0.6734,-0.0413,-0.2117,nothing
0.0409,0.6683,-0.0414,-0.2160,nothing
0.0406,0.6632,-0.0414,-0.2204,nothing
0.0403,0.6580,-0.0414,-0.2247,nothing
0.0400,0.6527,-0.0414,-0.2291,nothing
0.0397,0.6474,-0.0501,-0.2296,left_engine
0.0393,0.6421,-0.0591,-0.2300,left_engine
0.0388,0.6366,-0.0591,-0.2343,nothing
0.0384,0.6311,-0.0591,-0.2387,nothing
0.0380,0.6255,-0.0592,-0.2430,nothing
0.0376,0.6197,-0.0592,-0.2474,nothing
0.0372,0.6139,-0.0592,-0.2517,nothing
0.0368,0.6080,-0.0592,-0.2561,nothing
0.0364,0.6020,-0.0593,-0.2604,nothing
0.0360,0.5959,-0.0593,-0.2648,nothing
0.0356,0.5898,-0.0593,-0.2692,nothing
0.0352,0.5835,-0.0593,-0.2735,nothing
0.0348,0.5771,-0.0594,-0.2779,nothing
0.0344,0.5707,-0.0594,-0.2822,nothing
0.0340,0.5641,-0.0594,-0.2866,nothing
0.0336,0.5575,-0.0594,-0.2909,nothing
0.0332,0.5507,-0.0594,-0.2953,nothing
0.0328,0.5439,-0.0594,-0.2996,nothing
0.0324,0.5370,-0.0595,-0.3040,nothing
0.0320,0.5300,-0.0595,-0.3083,nothing
0.0316,0.5229,-0.0595,-0.3127,nothing
0.0312,0.5157,-0.0595,-0.3170,nothing
0.0308,0.5084,-0.0595,-0.3214,nothing
0.0304,0.5010,-0.0595,-0.3257,nothing
0.0301,0.4935,-0.0488,-0.3314,right_engine
0.0299,0.4859,-0.0368,-0.3371,right_engine
0.0297,0.4782,-0.0293,-0.3423,right_engine
0.0297,0.4704,-0.0207,-0.3477,right_engine
0.0296,0.4624,-0.0207,-0.3520,nothing
0.0295,0.4544,-0.0207,-0.3564,nothing
0.0294,0.4463,-0.0207,-0.3607,nothing
0.0293,0.4381,-0.0207,-0.3650,nothing
0.0292,0.4297,-0.0207,-0.3694,nothing
0.0293,0.4213,-0.0097,-0.3741,right_engine
0.0293,0.4128,-0.0004,-0.3789,right_engine
0.0295,0.4042,0.0096,-0.3830,right_engine
0.0297,0.3955,0.0096,-0.3873,nothing
0.0298,0.3866,0.0096,-0.3917,nothing
0.0300,0.3777,0.0096,-0.3960,nothing
0.0301,0.3687,0.0096,-0.4003,nothing
0.0303,0.3596,0.0096,-0.4046,nothing
0.0305,0.3504,0.0096,-0.4090,nothing
0.0306,0.3411,0.0096,-0.4133,nothing
0.0308,0.3317,0.0096,-0.4176,nothing
0.0309,0.3223,0.0096,-0.4219,nothing
0.0311,0.3127,0.0096,-0.4263,nothing
0.0313,0.3030,0.0096,-0.4306,nothing
0.0314,0.2932,0.0096,-0.4349,nothing
0.0316,0.2833,0.0096,-0.4392,nothing
0.0317,0.2734,0.0096,-0.4436,nothing
0.0320,0.2647,0.0156,-0.3849,main_engine
0.0322,0.2572,0.0122,-0.3344,main_engine
0.0322,0.2503,-0.0028,-0.3093,main_engine
0.0323,0.2438,0.0045,-0.2877,main_engine
0.0324,0.2372,0.0045,-0.2920,nothing
0.0326,0.2306,0.0045,-0.2963,nothing
0.0325,0.2246,-0.0090,-0.2682,main_engine
0.0324,0.2194,-0.0185,-0.2286,main_engine
0.0324,0.2149,-0.0102,-0.2016,main_engine
0.0324,0.2113,-0.0060,-0.1608,main_engine
0.0322,0.2084,-0.0289,-0.1297,main_engine
0.0320,0.2066,-0.0341,-0.0830,main_engine
0.0317,0.2046,-0.0341,-0.0873,nothing
0.0314,0.2026,-0.0341,-0.0916,nothing
0.0312,0.2005,-0.0341,-0.0960,nothing
0.0309,0.1982,-0.0341,-0.1003,nothing
0.0307,0.1959,-0.0341,-0.1046,nothing
0.0304,0.1935,-0.0341,-0.1089,nothing
0.0301,0.1910,-0.0341,-0.1133,nothing
0.0299,0.1884,-0.0341,-0.1176,nothing
0.0296,0.1857,-0.0341,-0.1219,nothing
0.0294,0.1828,-0.0341,-0.1262,nothing
0.0291,0.1799,-0.0341,-0.1306,nothing
0.0288,0.1769,-0.0341,-0.1349,nothing
0.0286,0.1738,-0.0341,-0.1392,nothing
0.0283,0.1706,-0.0341,-0.1435,nothing
0.0281,0.1674,-0.0235,-0.1460,right_engine
0.0280,0.1640,-0.0235,-0.1503,nothing
0.0278,0.1606,-0.0235,-0.1546,nothing
0.0276,0.1570,-0.0235,-0.1590,nothing
0.0274,0.1534,-0.0235,-0.1633,nothing
0.0272,0.1497,-0.0235,-0.1676,nothing
0.0271,0.1458,-0.0235,-0.1719,nothing
0.0269,0.1419,-0.0235,-0.1762,nothing
0.0267,0.1378,-0.0235,-0.1806,nothing
0.0266,0.1338,-0.0156,-0.1831,right_engine
0.0265,0.1296,-0.0084,-0.1852,right_engine
0.0266,0.1254,0.0009,-0.1877,right_engine
0.0266,0.1211,0.0086,-0.1902,right_engine
0.0267,0.1167,0.0086,-0.1945,nothing
0.0268,0.1122,0.0086,-0.1988,nothing
0.0269,0.1077,0.0086,-0.2031,nothing
0.0269,0.1030,0.0086,-0.2075,nothing
0.0270,0.0982,0.0086,-0.2118,nothing
0.0271,0.0933,0.0086,-0.2161,nothing
0.0272,0.0884,0.0086,-0.2204,nothing
0.0272,0.0833,0.0086,-0.2247,nothing
0.0273,0.0782,0.0086,-0.2291,nothing
0.0274,0.0729,0.0086,-0.2334,nothing
0.0275,0.0676,0.0086,-0.2377,nothing
0.0275,0.0621,0.0086,-0.2420,nothing
0.0276,0.0566,0.0086,-0.2463,nothing
0.0277,0.0509,0.0086,-0.2507,nothing
0.0278,0.0452,0.0086,-0.2550,nothing
0.0278,0.0393,0.0086,-0.2593,nothing
0.0279,0.0334,0.0086,-0.2636,nothing
0.0280,0.0283,0.0223,-0.2240,nothing
0.0280,0.0239,0.0301,-0.1878,nothing
0.0279,0.0201,0.0367,-0.1595,nothing
0.0277,0.0166,0.0405,-0.1467,nothing
0.0276,0.0131,0.0410,-0.1502,nothing
0.0274,0.0095,0.0424,-0.1563,nothing
0.0273,0.0059,0.0425,-0.1609,nothing
0.0271,0.0021,0.0428,-0.1659,nothing
0.0270,-0.0010,0.0316,-0.1388,nothing
0.0271,-0.0035,0.0245,-0.1132,nothing
0.0273,-0.0055,0.0177,-0.0882,nothing
0.0276,-0.0069,0.0110,-0.0640,nothing
0.0279,-0.0081,0.0067,-0.0502,nothing
0.0281,-0.0085,0.0010,-0.0202,nothing
0.0281,-0.0084,-0.0017,0.0084,nothing
0.0281,-0.0075,-0.0033,0.0366,nothing
0.0280,-0.0062,-0.0037,0.0604,nothing
0.0280,-0.0047,-0.0019,0.0636,nothing
0.0281,-0.0034,-0.0016,0.0614,nothing
0.0281,-0.0021,-0.0019,0.0563,nothing
0.0281,-0.0009,-0.0019,0.0520,nothing
0.0281,0.0001,-0.0019,0.0476,nothing
0.0282,0.0011,-0.0019,0.0433,nothing
0.0282,0.0020,-0.0019,0.0390,nothing
0.0282,0.0028,-0.0020,0.0347,nothing
0.0282,0.0035,-0.0020,0.0304,nothing
0.0283,0.0040,-0.0022,0.0256,nothing
0.0283,0.0045,-0.0022,0.0212,nothing
0.0283,0.0049,-0.0022,0.0169,nothing
0.0283,0.0052,-0.0022,0.0126,nothing
0.0283,0.0054,-0.0022,0.0083,nothing
0.0284,0.0055,-0.0022,0.0040,nothing
0.0284,0.0054,-0.0022,-0.0004,nothing
0.0284,0.0053,-0.0022,-0.0047,nothing
0.0284,0.0051,-0.0022,-0.0090,nothing
0.0284,0.0048,-0.0022,-0.0133,nothing
0.0284,0.0047,0.0005,-0.0081,nothing
0.0284,0.0044,0.0008,-0.0114,nothing
0.0284,0.0041,0.0011,-0.0147,nothing
0.0284,0.0037,0.0014,-0.0180,nothing
0.0284,0.0032,0.0017,-0.0213,nothing
0.0283,0.0026,0.0020,-0.0247,nothing
0.0283,0.0020,0.0022,-0.0280,nothing
0.0283,0.0013,0.0025,-0.0314,nothing
0.0282,0.0005,0.0028,-0.0348,nothing
0.0282,-0.0004,0.0031,-0.0382,nothing
0.0282,-0.0013,0.0033,-0.0416,nothing
0.0282,-0.0013,0.0017,-0.0024,nothing
0.0282,-0.0013,0.0002,0.0003,nothing
0.0282,-0.0013,-0.0004,0.0000,nothing
0.0282,-0.0013,-0.0002,0.0039,nothing
0.0282,-0.0012,-0.0004,0.0003,nothing
0.0282,-0.0012,-0.0001,-0.0000,nothing
0.0282,-0.0012,0.0001,-0.0000,nothing
0.0282,-0.0012,0.0001,0.0000,nothing
0.0282,-0.0012,0.0000,0.0000,nothing
0.0282,-0.0012,-0.0000,-0.0000,nothing
0.0282,-0.0012,-0.0000,-0.0000,nothing
0.0282,-0.0012,-0.0000,-0.0000,nothing
0.0282,-0.0012,0.0000,0.0000,nothing
0.0282,-0.0012,0.0000,0.0000,nothing
0.0282,-0.0012,0.0000,0.0000,nothing
0.0282,-0.0012,0.0000,0.0000,nothing
0.0282,-0.0012,-0.0000,-0.0000,nothing
0.0282,-0.0012,-0.0000,-0.0000,nothing
0.0282,-0.0012,-0.0000,0.0000,nothing
0.0282,-0.0012,0.0000,0.0000,nothing
0.0282,-0.0012,0.0000,0.0000,nothing
0.0282,-0.0012,0.0000,0.0000,nothing
0.0282,-0.0012,-0.0000,-0.0000,nothing
0.0282,-0.0012,-0.0000,0.0000,nothing
0.0282,-0.0012,-0.0000,0.0000,nothing
0.0282,-0.0012,-0.0000,0.0000,nothing
0.0282,-0.0012,-0.0000,0.0000,nothing
0.0282,-0.0012,-0.0000,0.0000,nothing
0.0282,-0.0012,0.0000,0.0000,nothing
-0.0145,1.4348,-0.7325,0.5279,nothing
-0.0217,1.4465,-0.7325,0.5237,nothing
-0.0290,1.4582,-0.7325,0.5193,nothing
-0.0362,1.4698,-0.7326,0.5150,nothing
-0.0435,1.4813,-0.7326,0.5107,nothing
-0.0507,1.4927,-0.7326,0.5063,nothing
-0.0579,1.5040,-0.7326,0.5020,nothing
-0.0652,1.5152,-0.7327,0.4977,nothing
-0.0724,1.5263,-0.7327,0.4934,nothing
-0.0797,1.5373,-0.7327,0.4890,nothing
-0.0869,1.5483,-0.7327,0.4847,nothing
-0.0942,1.5591,-0.7328,0.4804,nothing
-0.1014,1.5698,-0.7328,0.4761,nothing
-0.1087,1.5804,-0.7328,0.4717,nothing
-0.1159,1.5910,-0.7328,0.4674,nothing
-0.1231,1.6014,-0.7329,0.4631,nothing
-0.1304,1.6117,-0.7329,0.4587,nothing
-0.1376,1.6220,-0.7329,0.4544,nothing
